time,TPK1_solid_X,TPK1_solid_Y,TPK1_solid_Z,TPK1czm_N,TPK1czm_S1,TPK1czm_S2,TPK1czm_X,TPK1czm_Y,TPK1czm_Z,stress_xx,stress_xy,stress_xz,stress_yy,stress_yz,stress_zz,t_solid_X,t_solid_Y,t_solid_Z,tczm_N,tczm_S1,tczm_S2,tczm_X,tczm_Y,tczm_Z
0,0,0,0,0,0,0,0,0,0,0,0,0,0,0,0,0,0,0,0,0,0,0,0,0
0.01,-1.829183596017e-12,-1.8834550718403e-12,49.975943792529,49.9759437925,9.8095185693348e-14,-1.1803646461751e-13,1.1959473807218e-13,-9.7261411138069e-14,49.9759437925,1.9460916755031e-12,8.843098772515e-14,-5.8665455221106e-13,1.7339835909796e-12,-6.2548839774936e-13,50.125162304223,-1.8346451847959e-12,-1.8890787047595e-12,50.125162304233,50.27516234035,7.6989507814907e-14,-1.3970515935088e-13,9.8617783422437e-14,-1.1880572039992e-13,50.27516234035
0.02,-1.6265695262915e-11,-1.6468348571947e-11,99.804843712264,99.804843712064,4.6290535474687e-12,4.60100526997e-12,4.9579908776549e-12,4.9265681996443e-12,99.804843712064,-1.0794759096382e-12,1.7641839956094e-14,-5.9240789242867e-12,-1.6095933700624e-12,-6.0753499471794e-12,100.40024898728,-1.6362731442745e-11,-1.6566593719646e-11,100.40024898734,100.70028671441,4.5038475830999e-12,4.4772532662135e-12,4.835736119055e-12,4.80573712674e-12,100.70028671441
0.03,-5.6775250271429e-11,-5.6907243596212e-11,149.48857781937,149.48857781877,1.3683725320721e-11,1.4220032110233e-11,1.5390371546933e-11,1.5929608856188e-11,149.48857781877,4.4643696046472e-13,2.5513165011567e-14,-2.0959761694412e-11,3.4580515292688e-13,-2.0803432703001e-11,150.82496176077,-5.7282804319042e-11,-5.7415977625347e-11,150.82496176098,151.27507444654,1.3267929596019e-11,1.3809634259718e-11,1.4994971479026e-11,1.5539641684298e-11,151.27507444654
0.04,-1.364437387472e-10,-1.3582631749151e-10,199.02899111597,199.02899111451,3.2630283114858e-11,3.2948554824766e-11,3.8061123164781e-11,3.8361962671614e-11,199.02899111451,-1.3649765310001e-12,-1.8702793778029e-14,-5.0428008189254e-11,-1.4721884785121e-12,-5.0053365631681e-11,201.39900439831,-1.380684943739e-10,-1.3744372094017e-10,201.39900439881,201.9992289232,3.1728273094521e-11,3.2055746825026e-11,3.724016106796e-11,3.7549942443397e-11,201.9992289232
0.05,-2.6795678697738e-10,-2.6833363003199e-10,248.42789628612,248.4278962833,5.882109737595e-11,5.9141588631843e-11,7.2142375125264e-11,7.2474470520021e-11,248.4278962833,3.3517842169371e-12,-4.2079049635682e-13,-9.9348643466308e-11,3.1478668682506e-12,-9.919947914366e-11,252.12208271122,-2.7194137300827e-10,-2.7232381981559e-10,252.1220827122,252.87245556904,5.7135636296808e-11,5.7459476407425e-11,7.0695241583425e-11,7.1030893439555e-11,252.87245556904
0.06,-4.6772068160168e-10,-4.6753005024693e-10,297.68707441565,297.68707441074,9.6599586066556e-11,9.7183693792799e-11,1.2439522408669e-10,1.2497868209572e-10,297.68707441074,-1.5063484183346e-12,-4.929408175457e-13,-1.7414546820731e-10,-2.1335482576164e-12,-1.7384200378221e-10,302.99390452458,-4.7605867948538e-10,-4.758646497694e-10,302.99390452627,303.89446182278,9.3832019410439e-11,9.4428407026323e-11,1.2220725361861e-10,1.2280297796934e-10,303.89446182278
0.07,-7.4768988173863e-10,-7.4733085219828e-10,346.8082756926,346.80827568476,1.4664883104652e-10,1.481304755915e-10,1.9834353902342e-10,1.9979198615847e-10,346.80827568476,9.6876800531625e-13,-2.8151208758423e-13,-2.7960026940759e-10,-5.0573977061279e-13,-2.7919891625323e-10,354.01417965376,-7.6322521310232e-10,-7.6285872372733e-10,354.01417965645,355.06495711409,1.4248323181397e-10,1.4400500237546e-10,1.9540866802106e-10,1.9689645082112e-10,355.06495711409
0.08,-1.1218455239918e-09,-1.1214149053766e-09,395.79322008886,395.79322007709,2.0811716324137e-10,2.0801108146288e-10,2.9655346355587e-10,2.9641782104644e-10,395.79322007709,-1.0282451070737e-12,-2.1087838197644e-13,-4.2112045499643e-10,-1.5505239711085e-13,-4.2073294325481e-10,405.18261988125,-1.1484590575238e-09,-1.1480182233462e-09,405.18261988528,406.38365284035,2.0217330026106e-10,2.020682960072e-10,2.929759339153e-10,2.9284057795957e-10,406.38365284035
0.09,-1.6046802970123e-09,-1.6043688019802e-09,444.64359802355,444.64359800673,2.7789664514423e-10,2.7789654051757e-10,4.1981127613611e-10,4.1978357558409e-10,444.64359800673,7.4631894461149e-13,-1.6917857551749e-13,-6.0473475985226e-10,7.596909947316e-13,-6.0424044147728e-10,456.49893893389,-1.6474651972492e-09,-1.6471453969591e-09,456.49893893965,457.85026234412,2.6965683724772e-10,2.6965999462507e-10,4.1578657198668e-10,4.1576131379317e-10,457.85026234412
0.1,2.6240991447909e-12,3.1500841547046e-12,493.36107100127,493.36107100101,-5.1706843009399e-12,-6.2203516120195e-12,-3.384691697889e-12,-4.484482441497e-12,493.36107100101,-4.576491397e-13,-3.9282646994072e-13,7.8482048899657e-13,-2.1802245457808e-14,1.3542309767667e-12,507.96285246055,2.70176340428e-12,3.2433157514181e-12,507.96285246067,509.46450090664,-5.502660868315e-12,-6.5811672275007e-12,-3.6583730158297e-12,-4.7886388490352e-12,509.46450090664
0.11,-3.8194214013666e-12,-3.1304000977117e-12,541.94727226845,541.94727226816,-1.521994727424e-12,-4.7661349186613e-12,1.2268966878723e-12,-2.1256266853367e-12,541.94727226816,2.9059688636375e-13,4.1083083285883e-13,-1.5577728948453e-12,5.1223107664978e-13,-1.1459169257116e-12,559.57407801004,-3.9436478760307e-12,-3.2322161917117e-12,559.5740780102,561.22608566803,-1.815709117018e-12,-5.1644828180562e-12,1.0309692369046e-12,-2.4300431856529e-12,561.22608566803
0.12,-1.2319357742943e-11,-1.1261989041582e-11,590.40380738714,590.40380738675,-2.0876180506094e-13,-2.08504938532e-12,3.7976554053391e-12,1.7886331209467e-12,590.40380738675,-6.4370993590537e-14,1.6644333774465e-13,-4.8275425197533e-12,-1.3726835173281e-13,-4.180630070687e-12,611.33233500951,-1.2756052113117e-11,-1.1661201996838e-11,611.3323350097,613.13473568541,-5.4654044058185e-13,-2.4831617835302e-12,3.6141264226908e-12,1.539660003683e-12,613.13473568541
0.13,-2.326237743502e-11,-2.3771687413888e-11,638.7322548547,638.73225485423,1.4871667402224e-12,6.5455128067026e-13,7.2472792102969e-12,6.4047057477971e-12,638.73225485423,-3.9646564915077e-13,1.3870480219845e-13,-8.5515498674227e-12,-2.8160815550568e-13,-8.6320481054169e-12,663.23734474306,-2.4154843168096e-11,-2.4683692925514e-11,663.2373447433,665.19017186274,1.1011793061005e-12,2.349235213225e-13,7.0998903071474e-12,6.2232640335741e-12,665.19017186274
0.14,-3.6970939560339e-11,-3.6507711001e-11,686.93416667881,686.93416667802,3.8648364740525e-12,2.6223390263434e-12,1.1996911095027e-11,1.0655028779464e-11,686.93416667802,-6.2219957910629e-14,6.9526797340401e-13,-1.3795736492888e-11,4.5031179666479e-14,-1.3455132478539e-11,715.28883033083,-3.8496993448752e-11,-3.8014644148836e-11,715.28883033113,717.39211694091,3.4391495119475e-12,2.1492288260148e-12,1.1931791908343e-11,1.0538079732338e-11,717.39211694091
0.15,-5.3907541718358e-11,-5.3706454774893e-11,735.01106894283,735.01106894179,7.0134109081851e-12,5.1532235865801e-12,1.8221257477893e-11,1.6270367124393e-11,735.01106894179,2.5633260993843e-13,1.4826566818163e-13,-2.0003287999986e-11,5.1895351015564e-14,-1.970747850296e-11,767.48651670835,-5.6289371910086e-11,-5.6079400218071e-11,767.48651670872,769.74029547795,6.566266607913e-12,4.6248329718348e-12,1.8303683219419e-11,1.6267260838924e-11,769.74029547795
0.16,-7.3502532701039e-11,-7.2954580215741e-11,782.9644623566,782.96446235551,1.2361552932899e-11,1.1746345362783e-11,2.7476961886255e-11,2.6762132477567e-11,782.96446235551,3.5898247183218e-14,4.2252154222408e-13,-2.73048461314e-11,-1.7820641013185e-13,-2.6823260149574e-11,819.83013060618,-7.6963379414231e-11,-7.6389626735551e-11,819.83013060663,822.23443382816,1.1986051112581e-11,1.1346643172727e-11,2.7859580909136e-11,2.7115554547919e-11,822.23443382816
0.17,-9.7414065098872e-11,-9.7265918260416e-11,830.79582279305,830.79582279154,1.4726590106038e-11,1.4111382638295e-11,3.4811319452926e-11,3.4141335689005e-11,830.79582279154,1.8287009853216e-12,3.7149263527595e-13,-3.6151260118716e-11,2.0470217991802e-12,-3.6025676574019e-11,872.31940052997,-1.0228286726889e-10,-1.0212731597967e-10,872.31940053053,874.87426012157,1.4251660673045e-11,1.3607236434684e-11,3.5401998993305e-11,3.4699892265124e-11,874.87426012157
0.18,-1.252408368278e-10,-1.2494666806188e-10,878.50660181099,878.50660180942,1.8636589624136e-11,2.0487406447307e-11,4.4928618572614e-11,4.6734084146976e-11,878.50660180942,6.6038308862122e-13,3.6524372353436e-13,-4.6700856217063e-11,1.2844048794838e-12,-4.6563560329769e-11,924.95405674076,-1.3186243547261e-10,-1.3155271373251e-10,924.95405674144,927.6595042464,1.811366913688e-11,2.0070275199505e-11,4.5876750814061e-11,4.7785468201859e-11,927.6595042464
0.19,-1.5844146955658e-10,-1.5738550965741e-10,926.09822716469,926.09822716251,2.3652454993193e-11,2.5505839969809e-11,5.7587855302832e-11,5.9248926783962e-11,926.09822716251,8.4128457921036e-13,2.7524923676853e-13,-5.9182823940951e-11,1.2644232004551e-12,-5.8703341896899e-11,977.73383123561,-1.672755443346e-10,-1.6616070825398e-10,977.73383123643,980.58989782671,2.3115908477005e-11,2.5088914504371e-11,5.9048069608869e-11,6.0817446404088e-11,980.58989782671
0.2,-1.9607606553479e-10,-1.9521056890328e-10,973.5721033004,973.57210329782,3.3017448246642e-11,3.0983259788621e-11,7.6202310702551e-11,7.401026317124e-11,973.57210329782,5.2625486516541e-13,4.7379689603155e-13,-7.3258446774542e-11,1.1879716680666e-12,-7.2898299233395e-11,1030.6584577285,-2.0757317780233e-10,-2.0665693192759e-10,1030.6584577295,1033.6651742068,3.2708323277796e-11,3.0557516832153e-11,7.8558741775182e-11,7.6240332513128e-11,1033.6651742068
0.21,-2.3927098307012e-10,-2.3812857881235e-10,1020.9296118404,1020.9296118372,3.853157844718e-11,3.9969181952128e-11,9.2732062551499e-11,9.3964103984283e-11,1020.9296118372,-6.715252502393e-13,2.8135375795355e-13,-8.964672280272e-11,-1.5123562199427e-12,-8.8993282316182e-11,1083.7276716317,-2.5398870045943e-10,-2.5277602615556e-10,1083.7276716328,1086.8850684297,3.8198744224586e-11,3.9739557732347e-11,9.5900760300536e-11,9.7222731740951e-11,1086.8850684297
0.22,-2.8792808140779e-10,-2.8693680105476e-10,1068.1721120547,1068.1721120508,4.4263625649426e-11,4.4682282129173e-11,1.1157435780753e-10,1.1178092547201e-10,1068.1721120508,6.0063342483969e-14,4.0532350934726e-14,-1.0819974326035e-10,5.9527557700578e-13,-1.0763501302734e-10,1136.941210037,-3.0646493910996e-10,-3.0540983996315e-10,1136.9412100383,1140.24931722,4.3886446500223e-11,4.434379871029e-11,1.1573911473502e-10,1.1597006698195e-10,1140.24931722
0.23,-3.4252425403507e-10,-3.4156778421396e-10,1115.3009413213,1115.3009413168,5.2820466421057e-11,5.1617716200095e-11,1.356351008844e-10,1.3421419986675e-10,1115.3009413168,-1.4115388256573e-12,-1.0430663289998e-13,-1.2888368559977e-10,-7.7260895733694e-13,-1.2831151683896e-10,1190.2988116977,-3.6555713121978e-10,-3.6453634404987e-10,1190.2988116993,1193.7576589659,5.2555890433032e-11,5.127921303821e-11,1.4119618517569e-10,1.3968601099564e-10,1193.7576589659
0.24,-4.0441224702611e-10,-4.0391790892597e-10,1162.3174155745,1162.3174155694,6.2340582807358e-11,5.9927273146829e-11,1.632450479974e-10,1.6064009468809e-10,1162.3174155694,4.4808373013456e-13,-2.0416811689456e-13,-1.5260564313359e-10,8.6488552282848e-13,-1.5223270652619e-10,1243.8002170109,-4.327630592759e-10,-4.3223406622461e-10,1243.8002170128,1247.4098337005,6.2232755413926e-11,5.9652088301724e-11,1.7052436358939e-10,1.6773802273535e-10,1247.4098337005
0.25,-4.7237599863004e-10,-4.7197349575963e-10,1209.2228297425,1209.2228297366,6.7957624789763e-11,6.6155661354675e-11,1.8974740832015e-10,1.8775504525372e-10,1209.2228297366,1.5567203900503e-12,-5.1168002765903e-13,-1.7860897927114e-10,1.8797167768783e-12,-1.7819878698858e-10,1297.4451679993,-5.0683955167545e-10,-5.0640768304754e-10,1297.4451680015,1301.2055830848,6.76879682743e-11,6.5757703439642e-11,1.9874201587854e-10,1.9660686815775e-10,1301.2055830848
0.26,-5.4791143397419e-10,-5.4757475031202e-10,1256.0184581737,1256.018458167,7.5292786758415e-11,7.4504157098692e-11,2.2123772115946e-10,2.2020972999517e-10,1256.018458167,4.6752231337111e-13,-1.9516980310575e-13,-2.0772890645783e-10,6.7591023412508e-13,-2.0755118490442e-10,1351.2334082944,-5.8944693810493e-10,-5.8908473147541e-10,1351.2334082969,1355.1446503899,7.4938235293795e-11,7.4097688179251e-11,2.3240128515511e-10,2.3130248589442e-10,1355.1446503899
0.27,-6.3108696253657e-10,-6.316646952487e-10,1302.7055550531,1302.7055550454,8.6125760665601e-11,8.2523882158879e-11,2.5952435542689e-10,2.5581678865269e-10,1302.7055550454,-4.8248050538689e-13,-1.8290800548713e-13,-2.3984974506215e-10,-2.6793185301444e-13,-2.4005974235363e-10,1405.1646831189,-6.8072259943561e-10,-6.8134577141812e-10,1405.1646831217,1409.2267804804,8.592998913347e-11,8.2038691868182e-11,2.7350725284351e-10,2.6950162526288e-10,1409.2267804804
0.28,-7.235245819554e-10,-7.2363185744588e-10,1349.285354808,1349.2853547992,9.1181857056886e-11,8.99892011067e-11,2.9593501474762e-10,2.9463797616826e-10,1349.2853547992,-5.5111874713104e-13,-7.8545063748261e-13,-2.7607025901275e-10,-7.902690423163e-13,-2.7608394976062e-10,1459.2387392702,-7.8248466497006e-10,-7.8260068234987e-10,1459.2387392734,1463.4517197976,9.0618778634295e-11,8.9329434587417e-11,3.1269660649384e-10,3.1129404774582e-10,1463.4517197976
0.29,-8.2273055824009e-10,-8.2264385306834e-10,1395.7590725039,1395.7590724937,9.8669625614154e-11,9.9077976953721e-11,3.3874342359479e-10,3.3901597308897e-10,1395.7590724937,2.4084377142562e-12,-6.7369868535748e-13,-3.1481066624306e-10,2.0783575732565e-12,-3.1465590571773e-10,1513.4553251035,-8.9210664578601e-10,-8.9201262927092e-10,1513.4553251072,1517.8192163418,9.788531103247e-11,9.8334245152591e-11,3.5895373687773e-10,3.5925499318254e-10,1517.8192163418
0.3,-9.3077397801569e-10,-9.3108187481724e-10,1442.1279042314,1442.1279042199,1.0773778930233e-10,1.061497884588e-10,3.8749827346946e-10,3.8586332512317e-10,1442.1279042199,-1.3444905339213e-12,-6.8103609661454e-13,-3.5728249748131e-10,-1.0293463243303e-12,-3.5748426082038e-10,1567.8141905158,-1.0118940536536e-09,-1.0122287846947e-09,1567.8141905199,1572.3290196584,1.0681455949181e-10,1.050850871908e-10,4.1183294691952e-10,4.1005228850612e-10,1572.3290196584
0.31,-1.048675717327e-09,-1.04888974614e-09,1488.3930274823,1488.3930274695,1.1238156951039e-10,1.139747053882e-10,4.3662830262708e-10,4.3814311096735e-10,1488.3930274695,1.5619761007975e-12,-7.895628285277e-13,-4.0361047659737e-10,8.4283957906361e-13,-4.0392974221879e-10,1622.3150869292,-1.1430330605611e-09,-1.1432663471769e-09,1622.3150869339,1626.9808808188,1.1084949132214e-10,1.1259301913523e-10,4.6528761734971e-10,4.6694552435992e-10,1626.9808808188
0.32,-1.1753017709496e-09,-1.1751684035526e-09,1534.5556015184,1534.5556015041,1.1735398806116e-10,1.1657567032179e-10,4.9118263935745e-10,4.9021868682831e-10,1534.5556015041,1.2937199534566e-14,-5.9679018606981e-13,-4.5366878136463e-10,5.3904904093049e-14,-4.5382363563861e-10,1676.9577672758,-1.2843662567476e-09,-1.2842205132553e-09,1676.9577672811,1681.7745524063,1.1515760900335e-10,1.1431120838774e-10,5.2484984309004e-10,5.2379999864667e-10,1681.7745524063
0.33,-1.3114159430379e-09,-1.311925841624e-09,1580.6167677301,1580.6167677141,1.2105237286509e-10,1.2342600205707e-10,5.4970612228468e-10,5.5201739538621e-10,1580.6167677141,3.2418531065418e-13,-2.8642716671186e-13,-5.0765446009679e-10,4.1450355881711e-13,-5.0796695088943e-10,1731.7419859813,-1.4368024533315e-09,-1.4373611041115e-09,1731.7419859871,1736.7097885002,1.179840578632e-10,1.205931633923e-10,5.8896929457618e-10,5.9150988607022e-10,1736.7097885002
0.34,-1.4582203311714e-09,-1.4576571299899e-09,1626.5776499874,1626.5776499697,1.2539469243602e-10,1.2699586112173e-10,6.1482295110897e-10,6.1606751934869e-10,1626.5776499697,3.4403206739872e-13,-5.0139105859089e-13,-5.659460839292e-10,7.5942562969347e-13,-5.659621659479e-10,1786.6674989499,-1.6017402378801e-09,-1.6011216057194e-09,1786.6674989564,1791.7863446612,1.2141347765527e-10,1.231886422003e-10,6.6055212289475e-10,6.6193446769973e-10,1791.7863446612
0.35,6.4473352825603e-10,6.449944750668e-10,1672.4393549741,1672.439354978,1.3908094511604e-10,1.4106337174237e-10,-2.4043829515735e-11,-2.2310702694239e-11,1672.439354978,-9.7343709759575e-13,-4.5094943216785e-13,2.8904890070674e-10,-9.9139821004724e-13,2.8906480591945e-10,1841.7340635493,7.0999746410487e-10,7.1028482557405e-10,1841.7340635483,1847.0039779318,1.5911332280758e-10,1.613100308888e-10,-2.1037967430427e-11,-1.9116580382444e-11,1847.0039779318
0.36,1.9986090252593e-09,1.9980257156081e-09,1718.2029725462,1718.2029725597,8.4410381372539e-12,8.4463295474408e-12,-6.1936292583965e-10,-6.194268491803e-10,1718.2029725597,-7.6414334065112e-13,-5.434558261246e-13,8.1532460925617e-10,-9.9429252670238e-13,8.152362228412e-10,1896.9414385953,2.2065171229062e-09,2.2058731336532e-09,1896.9414385886,1902.3624467588,2.9944278767801e-11,2.9952111538063e-11,-6.6514862007449e-10,-6.6521742059195e-10,1902.3624467588
0.37,1.9753490486538e-09,1.9748993721317e-09,1763.869576036,1763.8695760496,1.3748180501615e-11,1.4932779223729e-11,-6.2588166177966e-10,-6.2485745725314e-10,1763.8695760496,1.1643858176271e-13,-3.4329489597438e-13,8.0648179495952e-10,-2.0761419167323e-14,8.0635403336726e-10,1952.2893843375,2.1863594850938e-09,2.1858617732944e-09,1952.2893843308,1957.8615110602,3.5754195746472e-11,3.7073492346342e-11,-6.7422270194046e-10,-6.7308143983158e-10,1957.8615110602
0.38,1.949670139144e-09,1.9494137165826e-09,1809.4402225676,1809.4402225813,2.0507949035578e-11,2.3648378514366e-11,-6.2988530794453e-10,-6.2703109335531e-10,1809.4402225813,-3.0859107033314e-13,-6.1101402342417e-13,7.9693563130429e-10,9.2536791961369e-14,7.9675137310963e-10,2007.7776624442,2.1633785441886e-09,2.1630940144847e-09,2007.7776624375,2013.5009321735,4.3184495624802e-11,4.668661656551e-11,-6.8055725216317e-10,-6.7737362416837e-10,2013.5009321735
0.39,1.9207005726149e-09,1.9205656599206e-09,1854.9159533818,1854.9159533953,2.4806616548989e-11,2.6383850782605e-11,-6.3512802215597e-10,-6.3383682418249e-10,1854.9159533953,-1.4323636909748e-12,-4.5533827082248e-13,7.8518756989699e-10,-6.8619048051057e-13,7.8515315290325e-10,2063.4060359887,2.1365847587984e-09,2.136434682097e-09,2063.406035982,2069.2804728378,4.7879345195397e-11,4.9646780419189e-11,-6.8832105176693e-10,-6.8687270876214e-10,2069.2804728378
0.4,1.8910701047228e-09,1.8904256130561e-09,1900.2977941347,1900.2977941482,3.2480549681265e-11,2.8619714322421e-11,-6.3579237245107e-10,-6.398929865416e-10,1900.2977941482,1.4747197522198e-12,-4.4855956572362e-13,7.7361350264241e-10,2.1894944272508e-12,7.73251933098e-10,2119.1742694346,2.1088837338979e-09,2.1081650096216e-09,2119.1742694279,2125.1998971852,5.6345273065262e-11,5.203592586566e-11,-6.9101840318629e-10,-6.9559590716506e-10,2125.1998971852
0.41,1.8572846852789e-09,1.8575712691084e-09,1945.5867551948,1945.5867552082,3.0331471463799e-11,3.5790088050561e-11,-6.4488599494838e-10,-6.3996378729132e-10,1945.5867552082,1.8078219222022e-13,-8.1724927209461e-13,7.6007028011841e-10,8.0769167771521e-13,7.5997013159002e-10,2175.0821286222,2.0763642206728e-09,2.0766846090411e-09,2175.0821286155,2181.2589707267,5.381434798286e-11,5.9947502694774e-11,-7.0319335257855e-10,-6.9766158291759e-10,2181.2589707267
0.42,1.8218774047064e-09,1.8223421282328e-09,1990.7838319328,1990.7838319462,3.6589254661338e-11,3.508472987532e-11,-6.4440276023857e-10,-6.4641871391718e-10,1990.7838319462,4.0647699936571e-13,-4.0490206779636e-13,7.4552616504262e-10,-1.5799388219903e-13,7.4546469880531e-10,2231.1293807546,2.0418310318579e-09,2.0423518610394e-09,2231.129380748,2237.4574603381,6.0694354792066e-11,5.9018489554956e-11,-7.0467787684743e-10,-7.0692854100183e-10,2237.4574603381
0.43,1.7845464496002e-09,1.7847089756277e-09,2035.8900050047,2035.8900050179,3.8858388711351e-11,3.9660426345288e-11,-6.4661088049331e-10,-6.4621899623068e-10,2035.8900050179,-5.7172032096034e-13,-9.1260729633434e-13,7.302569489894e-10,-1.4169316921175e-12,7.3014856260961e-10,2287.3157943844,2.0049321279328e-09,2.0051147253958e-09,2287.3157943777,2293.7951342463,6.3091951492701e-11,6.4006590391314e-11,-7.0921208777352e-10,-7.087595601899e-10,2293.7951342463
0.44,1.7455529372064e-09,1.7457968837591e-09,2080.9062406291,2080.9062406423,4.0239694198628e-11,3.759140384803e-11,-6.48415597498e-10,-6.5158196375311e-10,2080.9062406423,-9.5151557122848e-13,-7.4975043800291e-13,7.1409406140708e-10,-9.8656464716088e-13,7.1367990557909e-10,2343.6411393998,1.9659461799628e-09,1.9662209271694e-09,2343.6411393932,2350.2717620173,6.4476334646469e-11,6.1500416774032e-11,-7.1332280604852e-10,-7.1688386281149e-10,2350.2717620173
0.45,1.7041700250335e-09,1.7038098601485e-09,2125.8334908574,2125.8334908703,3.7288442051737e-11,3.6549363139177e-11,-6.5325184143032e-10,-6.5433664384102e-10,2125.8334908703,-1.9666736278401e-12,-8.7888794608698e-13,6.9708234369153e-10,-2.2421832311711e-12,6.9654094130025e-10,2400.1051870122,1.9240393634841e-09,1.9236327306916e-09,2400.1051870056,2406.8871145411,6.0942285469667e-11,6.0114912368266e-11,-7.2089341216254e-10,-7.2211221640681e-10,2406.8871145411
0.46,1.6614305403709e-09,1.6612401496342e-09,2170.6726938381,2170.672693851,3.883760835434e-11,3.5424054925767e-11,-6.5243060460585e-10,-6.56180711858e-10,2170.672693851,-2.3200667685428e-13,-9.9445224531098e-13,6.7901351597881e-10,1.5880596475763e-13,6.7862854910818e-10,2456.7077097425,1.8803614332583e-09,1.880145954254e-09,2456.707709736,2463.6409640205,6.2480211601126e-11,5.861608399595e-11,-7.2208610804635e-10,-7.2633221299372e-10,2463.6409640205
0.47,1.6170133243403e-09,1.6169106858968e-09,2215.4247740753,2215.4247740879,2.8074504855193e-11,3.1539070088452e-11,-6.6276431739719e-10,-6.5970788558145e-10,2215.4247740879,-2.0285762013363e-12,-1.1533658234628e-12,6.6028787396513e-10,-2.9839287396031e-12,6.599687471818e-10,2513.4484814089,1.8345374359041e-09,1.8344209903164e-09,2513.4484814024,2520.5330839566,5.0007248284524e-11,5.3957778740429e-11,-7.3597389968092e-10,-7.3248771077863e-10,2520.5330839566
0.48,1.5712078948529e-09,1.5708999568803e-09,2260.0906426814,2260.0906426939,3.3207069242666e-11,2.9807293936531e-11,-6.5566489614995e-10,-6.5936287142161e-10,2260.0906426939,7.8202119177851e-13,-8.9520239211e-13,6.4055735887423e-10,9.2034696153221e-13,6.4003034868671e-10,2570.3272771136,1.7868834257705e-09,1.7865332179712e-09,2570.3272771072,2577.5632491382,5.5570585970145e-11,5.1702137244717e-11,-7.3006651539899e-10,-7.3427505193219e-10,2577.5632491382
0.49,1.5233032989389e-09,1.5225743344783e-09,2304.6711976235,2304.6711976359,3.0250614867612e-11,2.9515741345765e-11,-6.5562311514424e-10,-6.5665643408327e-10,2304.6711976359,-7.0727939723077e-13,-1.0510457774734e-12,6.2012631429838e-10,1.0808870870932e-14,6.1942876805462e-10,2627.343873231,1.7365781260498e-09,1.7357471006475e-09,2627.3438732247,2634.7312356271,5.1906297104466e-11,5.1073710382654e-11,-7.3219381314638e-10,-7.3336758669936e-10,2634.7312356271
0.5,1.4742996589781e-09,1.474168965857e-09,2349.1673239655,2349.1673239773,2.4534097382961e-11,2.4183327848793e-11,-6.5695685358592e-10,-6.5765050986033e-10,2349.1673239773,6.4019222366991e-13,-1.2476688289756e-12,5.9871949494331e-10,6.1939918004531e-13,5.9852154654908e-10,2684.4980473951,1.684747831888e-09,1.6845984830422e-09,2684.4980473889,2692.0368207472,4.5043781736446e-11,4.4650144785132e-11,-7.3591324686216e-10,-7.3669981611789e-10,2692.0368207472
0.51,1.4242182188564e-09,1.4232728939861e-09,2393.5798941033,2393.5798941148,1.9481614497557e-11,1.2315104020982e-11,-6.5632551526473e-10,-6.6360961918146e-10,2393.5798941148,1.0056696571024e-12,-8.6786832752784e-13,5.7691978549588e-10,1.0557315300927e-12,5.7640378754311e-10,2741.7895784874,1.6314085356263e-09,1.6303256881792e-09,2741.7895784812,2749.4797830731,3.8894913688509e-11,3.0668679465029e-11,-7.3739755313354e-10,-7.4575886569184e-10,2749.4797830731
0.52,1.3727810557036e-09,1.371977765787e-09,2437.9097679962,2437.9097680078,1.3951752970255e-11,1.1720856351756e-11,-6.548114214949e-10,-6.5740690089456e-10,2437.9097680078,1.1432436303029e-12,-1.017497691786e-12,5.5452107063836e-10,1.6743679065095e-12,5.5386090771698e-10,2799.2182466249,1.5762329804752e-09,1.5753106396152e-09,2799.2182466188,2807.0599024166,3.2150716323346e-11,2.9591382592841e-11,-7.3787708203442e-10,-7.4085620394558e-10,2807.0599024166
0.53,1.3210483432858e-09,1.3195870188405e-09,2482.1577933922,2482.1577934035,6.0877938273068e-12,7.897324005267e-14,-6.5452924380984e-10,-6.6060500699933e-10,2482.1577934035,1.4926180594609e-12,-1.0176795187669e-12,5.3178941855936e-10,1.42714510394e-12,5.3103326328276e-10,2856.7838331485,1.5204309572683e-09,1.5187490786782e-09,2856.7838331424,2864.7769598142,2.2672122914737e-11,1.5741020359162e-11,-7.3977757859623e-10,-7.4678594280899e-10,2864.7769598142
0.54,1.2680228369509e-09,1.2663837270994e-09,2526.3248060489,2526.3248060604,-5.9813561472091e-12,-7.8724446301238e-12,-6.5721183321168e-10,-6.5890236707262e-10,2526.3248060604,1.090423112983e-12,-1.0134130505196e-12,5.0836325516954e-10,9.6858618918845e-13,5.0741618565912e-10,2914.486120611,1.462850283564e-09,1.4609593299935e-09,2914.486120605,2922.6307375191,8.2735663621639e-12,6.0814103200644e-12,-7.4511578599349e-10,-7.4707592630218e-10,2922.6307375191
0.55,1.212808141231e-09,1.2116355298252e-09,2570.4116299492,2570.4116299603,-1.3632973316021e-11,-1.6999923395009e-11,-6.5410057109901e-10,-6.5746707877886e-10,2570.4116299603,7.1812601403512e-13,-1.2147686533212e-12,4.8338134099844e-10,1.8625909029268e-13,4.8291363159857e-10,2972.3248927662,1.4024445681466e-09,1.4010886055333e-09,2972.3248927603,2980.6210189848,-1.0873092214651e-12,-4.990579103209e-12,-7.4376648234681e-10,-7.4766923922738e-10,2980.6210189848
0.56,1.1576269109758e-09,1.1568682921193e-09,2614.4190775125,2614.4190775231,-2.0237178026488e-11,-2.5844222020977e-11,-6.4883144092756e-10,-6.5433761260285e-10,2614.4190775231,-1.0569089537488e-13,-1.5894372937154e-12,4.5837148482151e-10,6.3851340207104e-13,4.5819865176646e-10,3030.2999345569,1.3417729325561e-09,1.3408936386851e-09,3030.2999345511,3038.7475888581,-9.2831871316004e-12,-1.580043861859e-11,-7.3990029331119e-10,-7.4630030058154e-10,3038.7475888581
0.57,1.1020511149453e-09,1.1014389055539e-09,2658.3479498013,2658.3479498117,-3.4013202823061e-11,-3.9599757934429e-11,-6.4941001471679e-10,-6.5498588836149e-10,2658.3479498117,7.0159912742436e-13,-1.5492603981476e-12,4.3346173325316e-10,1.2305832514561e-12,4.3331731137132e-10,3088.4110321044,1.2803390999242e-09,1.279627848322e-09,3088.4110320987,3097.0102329661,-2.5881265531089e-11,-3.2387835616537e-11,-7.4282662398373e-10,-7.4932075002039e-10,3097.0102329661
0.58,1.0460737173989e-09,1.0444335534941e-09,2702.1990367232,2702.1990367333,-4.8201378924021e-11,-4.784197883134e-11,-6.4935534171867e-10,-6.4884089875152e-10,2702.1990367333,1.0244797675646e-12,-1.4332179621239e-12,4.0791627313949e-10,1.2541461737386e-12,4.0720945745208e-10,3146.657972697,1.2181324018484e-09,1.2162224630329e-09,3146.6579726914,3155.4087383043,-4.3043151006038e-11,-4.262799903683e-11,-7.4502196214559e-10,-7.4442576369007e-10,3155.4087383043
0.59,9.886277527988e-10,9.8771183152035e-10,2745.9731172288,2745.9731172388,-5.3541015700644e-11,-5.5021446777132e-11,-6.3930140844274e-10,-6.4080221969326e-10,2745.9731172388,8.623057337679e-14,-1.6771550746777e-12,3.8165987865347e-10,3.2917027583988e-13,3.8124152737411e-10,3205.0405447791,1.1539049714392e-09,1.152835927895e-09,3205.0405447736,3213.9428930275,-4.9940184646567e-11,-5.1672567744664e-11,-7.3552608476038e-10,-7.3728232122946e-10,3213.9428930275
0.6,9.3069719172614e-10,9.2952649908332e-10,2789.670959505,2789.6709595147,-6.4150346309486e-11,-7.6725100636547e-11,-6.3334594708596e-10,-6.4591512651761e-10,2789.6709595147,-2.3969759613151e-13,-1.5341265213554e-12,3.5526353857943e-10,-5.3563268554764e-13,3.5471758598569e-10,3263.5585379409,1.0887967829831e-09,1.0874272221908e-09,3263.5585379355,3272.6124864375,-6.305557306042e-11,-7.7801476834514e-11,-7.3078902885496e-10,-7.4552839262036e-10,3272.6124864375
0.61,8.7262427492883e-10,8.7050706882366e-10,2833.2933211643,2833.2933211735,-7.8506266298356e-11,-8.7399353138657e-11,-6.3010824852705e-10,-6.385497901752e-10,2833.2933211735,-1.6799994100718e-13,-1.3521627811316e-12,3.284909871534e-10,-1.5135995207864e-13,3.2747904898438e-10,3322.2117429075,1.0232059602353e-09,1.0207234050645e-09,3322.2117429022,3331.4173089735,-8.0638453415881e-11,-9.1100913104836e-11,-7.2921810365119e-10,-7.3914963155922e-10,3331.4173089735
0.62,8.1336957129291e-10,8.1185499382446e-10,2876.8409494303,2876.8409494391,-9.5145892464346e-11,-9.8108570451672e-11,-6.2771368870149e-10,-6.3045804318895e-10,2876.8409494391,-3.9387098369201e-13,-1.380488042249e-12,3.0116293290864e-10,-7.8784276420726e-13,3.0032605195526e-10,3380.9999515283,9.5591050372675e-10,9.5413050043932e-10,3380.9999515231,3390.3571522016,-1.0100426476932e-10,-1.0449997476498e-10,-7.2863542990443e-10,-7.3187384564843e-10,3390.3571522016
0.63,7.5344011410876e-10,7.525556744089e-10,2920.3145813189,2920.3145813283,-1.1474694816925e-10,-1.1548616252744e-10,-6.2734896458628e-10,-6.2802205724709e-10,2920.3145813283,3.7210098860519e-13,-1.0904569492453e-12,2.7367406851683e-10,4.8927465537357e-13,2.7300947625348e-10,3439.9229567669,8.8749888852642e-10,8.8645708143931e-10,3439.9229567619,3449.4318088053,-1.2496031152041e-10,-1.2583570251178e-10,-7.3043812955821e-10,-7.3123541859179e-10,3449.4318088053
0.64,6.9349883620057e-10,6.9312684602179e-10,2963.7149438156,2963.7149438243,-1.3288488700019e-10,-1.3362180053299e-10,-6.2467489964502e-10,-6.2535336180169e-10,2963.7149438243,1.1351891590538e-12,-1.257073212342e-12,2.4549929939667e-10,5.8652995433141e-13,2.4524296782747e-10,3498.9805526912,8.1874909941651e-10,8.1830992546558e-10,3498.9805526862,3508.6410725699,-1.4729286821355e-10,-1.4816735158127e-10,-7.2950629634396e-10,-7.3031158112042e-10,3508.6410725699
0.65,6.339549302907e-10,6.3344871789584e-10,3007.0427540499,3007.0427540584,-1.4888111933988e-10,-1.4668290068981e-10,-6.1851433720223e-10,-6.1635301950668e-10,3007.0427540584,-6.8123074201879e-13,-9.7455161600742e-13,2.175526334337e-10,-2.0489606435874e-12,2.1712283100048e-10,3558.1725344625,7.5014597581173e-10,7.4954698498011e-10,3558.1725344577,3567.984738382,-1.6719537240339e-10,-1.6458892064087e-10,-7.2443525590972e-10,-7.2187258870677e-10,3567.984738382
0.66,5.7392116234347e-10,5.734190206103e-10,3050.2987194648,3050.2987194729,-1.6416691328054e-10,-1.7072866707867e-10,-6.108164684825e-10,-6.1743353543823e-10,3050.2987194729,3.2651301300381e-13,-9.9162838447953e-13,1.8934777393732e-10,4.9293007943967e-13,1.8895740788156e-10,3617.4986983265,6.8064122522438e-10,6.8004571074098e-10,3617.4986983218,3627.4626022115,-1.8634096382828e-10,-1.9414061858401e-10,-7.1750355044518e-10,-7.2536898446684e-10,3627.4626022115
0.67,5.135193896212e-10,5.1335839681056e-10,3093.4835379834,3093.4835379913,-1.8603898162459e-10,-1.8966544040165e-10,-6.0875513977068e-10,-6.1253328311943e-10,3093.4835379913,-3.2596601664378e-13,-1.0297808189343e-12,1.606661688886e-10,1.7961885408895e-13,1.6048222953198e-10,3676.958841603,6.1037650170614e-10,6.1018514334549e-10,3676.9588415983,3687.0744611051,-2.1341878133967e-10,-2.1773730382408e-10,-7.1724753357184e-10,-7.2174684651579e-10,3687.0744611051
0.68,4.5346261493253e-10,4.5283950231022e-10,3136.5978981726,3136.5978981798,-2.0574719760951e-10,-2.1155110439536e-10,-6.0345412205086e-10,-6.0933656394719e-10,3136.5978981798,-1.3016602737578e-12,-1.0116028355136e-12,1.3222805396708e-10,-1.4633824100359e-12,1.3185782889448e-10,3736.5527626761,5.4019898042449e-10,5.3945668151787e-10,3736.5527626716,3746.820113176,-2.3803651558341e-10,-2.449659642847e-10,-7.131169536947e-10,-7.2014021643944e-10,3746.820113176
0.69,3.9277077836897e-10,3.9238852928799e-10,3179.6424794019,3179.642479409,-2.2909349668277e-10,-2.3560054827039e-10,-6.0085954733791e-10,-6.0754751009697e-10,3179.642479409,1.1525350346172e-12,-8.2940614923384e-13,1.0343351105802e-10,1.1613105471184e-12,1.0303049659638e-10,3796.2802609851,4.6894201554781e-10,4.6848563573458e-10,3796.2802609807,3806.6993575955,-2.6711634335748e-10,-2.7490068557147e-10,-7.1219832831946e-10,-7.2019925917337e-10,3806.6993575955
0.7,3.3300539977652e-10,3.3208880130127e-10,3222.6179520006,3222.6179520072,-2.4300620332405e-10,-2.4880984373085e-10,-5.8824757269404e-10,-5.938302915397e-10,3222.6179520072,4.4036207353914e-13,-1.0145409783322e-12,7.4532991733435e-11,-6.6941154212364e-13,7.3724984235637e-11,3856.1411370148,3.9846976590189e-10,3.9737297654021e-10,3856.1411370106,3866.7119945809,-2.8500408117535e-10,-2.9196998101738e-10,-6.9924770665289e-10,-7.0594853006854e-10,3866.7119945809
0.71,2.7245081299382e-10,2.717695032622e-10,3265.5249774103,3265.5249774171,-2.6996981069406e-10,-2.7213544666089e-10,-5.8751752869489e-10,-5.8965982642352e-10,3265.5249774171,9.6261324157946e-13,-7.6090505239329e-13,4.5076751806872e-11,-1.2892354752525e-13,4.4606241728903e-11,3916.1351922863,3.2673282988548e-10,3.2591577871138e-10,3916.1351922821,3926.8578253897,-3.1865984239424e-10,-3.2126486303758e-10,-7.0051720070252e-10,-7.0309415665674e-10,3926.8578253897
0.72,2.1283182652542e-10,2.1124317322588e-10,3308.3642083356,3308.3642083419,-2.9617590459709e-10,-2.9618993365629e-10,-5.8534873809933e-10,-5.8518341695768e-10,3308.3642083419,-1.3114065670421e-13,-5.1722762657995e-13,1.6362799293462e-11,3.5294850007186e-13,1.5189006956204e-11,3976.2622293474,2.557986665685e-10,2.5388929332158e-10,3976.2622293434,3987.1366523059,-3.5154496504169e-10,-3.5156699242315e-10,-7.0004698316919e-10,-6.9985286332067e-10,3987.1366523059
0.73,1.5278766332887e-10,1.5170518614089e-10,3351.1362888902,3351.1362888964,-3.1591685088896e-10,-3.1520760558408e-10,-5.7562849176792e-10,-5.7479568584842e-10,3351.1362888964,-5.8375070151959e-13,-2.9125976770774e-13,-1.264720374311e-11,-1.4606928197436e-12,-1.3583720234081e-11,4036.5220517643,1.8403631458038e-10,1.8273244548551e-10,4036.5220517604,4047.5482786362,-3.7677073271984e-10,-3.7591860270742e-10,-6.904540073943e-10,-6.8945263918029e-10,4047.5482786362
0.74,9.2941639029772e-11,9.1640421395808e-11,3393.8418547418,3393.8418547474,-3.3350026254573e-10,-3.3924465316514e-10,-5.6309745581784e-10,-5.687232250026e-10,3393.8418547474,1.8296799093459e-13,-4.4218941351661e-13,-4.1927228312704e-11,-2.2353301725578e-13,-4.2904067388278e-11,4096.9144641118,1.1219554757007e-10,1.1062476803063e-10,4096.9144641081,4108.0925086964,-3.9948894035564e-10,-4.0644248913442e-10,-6.7740598836997e-10,-6.8421595125173e-10,4108.0925086964
0.75,3.3406320287701e-11,3.1769233017531e-11,3436.4815332523,3436.4815332572,-3.632541827907e-10,-3.6255719379218e-10,-5.6201664072063e-10,-5.6109012671417e-10,3436.4815332572,6.4956521651651e-13,-3.694183847127e-13,-7.1446988982373e-11,1.490562643018e-12,-7.2056908401447e-11,4157.4392719652,4.0414809901328e-11,3.8434269385462e-11,4157.4392719616,4168.7691478055,-4.3705556999827e-10,-4.3621654123326e-10,-6.7817276918628e-10,-6.7705530541078e-10,4168.7691478055
0.76,-2.6132382510423e-11,-2.7792918998918e-11,3479.0559436163,3479.0559436212,-3.9012722360697e-10,-3.8372058092023e-10,-5.571293008015e-10,-5.5049926965897e-10,3479.0559436212,1.3747656985065e-13,-2.4591926036525e-13,-1.0094822327846e-10,-2.8476291604066e-13,-1.0190665256733e-10,4218.0962818908,-3.1683567982381e-11,-3.3696844831495e-11,4218.0962818874,4229.5780022766,-4.7128189424583e-10,-4.6350327029038e-10,-6.7431062487936e-10,-6.6626042181916e-10,4229.5780022766
0.77,-8.4742106395172e-11,-8.6915668218826e-11,3521.5656969967,3521.5656970015,-4.0484407262043e-10,-4.1058585091502e-10,-5.3956256225976e-10,-5.4478859517729e-10,3521.5656970015,1.7653546378013e-12,1.9949603673453e-13,-1.2987346142494e-10,1.6703077838142e-12,-1.3133608625744e-10,4278.885301438,-1.0296606244664e-10,-1.0560705300006e-10,4278.8853014347,4290.518879406,-4.9084317564022e-10,-4.9784588064265e-10,-6.5497818629607e-10,-6.6135253008998e-10,4290.518879406
0.78,-1.4424302094513e-10,-1.4615242541787e-10,3564.0113966569,3564.0113966609,-4.3807621419334e-10,-4.3739207947158e-10,-5.3964908967407e-10,-5.3864199274801e-10,3564.0113966609,-9.3135906750079e-13,-1.0916988570098e-13,-1.5936329734245e-10,-3.6054809402233e-13,-1.6069721248974e-10,4339.8061391303,-1.7564106231846e-10,-1.7796609563924e-10,4339.806139127,4351.5915874659,-5.3307831474673e-10,-5.3225102006605e-10,-6.5709690539175e-10,-6.558752798701e-10,4351.5915874659
0.79,-2.0366444982426e-10,-2.045717230832e-10,3606.3936380912,3606.3936380953,-4.6491056951843e-10,-4.6064680750021e-10,-5.3214085107454e-10,-5.2795579930405e-10,3606.3936380953,1.9061555526918e-13,2.9694078888425e-14,-1.8886120802233e-10,1.2218323236284e-13,-1.8930139008174e-10,4400.8586044568,-2.4853039805849e-10,-2.4963753769129e-10,4400.8586044537,4412.7959356992,-5.6767184669333e-10,-5.6245799102615e-10,-6.4993505558792e-10,-6.448175100566e-10,4412.7959356992
0.8,-2.6052548347042e-10,-2.624563041505e-10,3648.7130091519,3648.7130091554,-4.9233164037032e-10,-4.860130701857e-10,-5.2557224736951e-10,-5.1865154390831e-10,3648.7130091554,-4.7559682678372e-13,2.0516133641097e-13,-2.1757945336784e-10,-9.4027427225434e-13,-2.1865295673627e-10,4462.0425078643,-3.185988535438e-10,-3.2096007075326e-10,4462.0425078613,4474.1317343046,-6.0310561788252e-10,-5.9537428898295e-10,-6.4386597756809e-10,-6.3539629966868e-10,4474.1317343046
0.81,-3.1843601844635e-10,-3.1953666493105e-10,3690.9700901744,3690.9700901779,-5.1837265248239e-10,-5.1626140429921e-10,-5.1618720175761e-10,-5.1397574012589e-10,3690.9700901779,-2.8982477815251e-13,1.3310195815932e-13,-2.4682360970809e-10,-2.1475676927802e-13,-2.474354006518e-10,4523.3576607489,-3.9024970896708e-10,-3.9159857324578e-10,4523.357660746,4535.5987944351,-6.3700014650892e-10,-6.344106202532e-10,-6.3431458487323e-10,-6.3160191267343e-10,4535.5987944351
0.82,-3.7623706916529e-10,-3.7753482091511e-10,3733.1654540994,3733.1654541021,-5.4223378313363e-10,-5.4436553955192e-10,-5.0438922612207e-10,-5.0630618939249e-10,3733.1654541021,7.8740921392387e-13,1.1024167404587e-13,-2.7603163221522e-10,1.7968157996393e-12,-2.7651726625192e-10,4584.8038754476,-4.6206716364549e-10,-4.6366096850764e-10,4584.8038754449,4597.196928184,-6.6833895955717e-10,-6.7096792695047e-10,-6.217353778566e-10,-6.2409983878433e-10,4597.196928184
0.83,-4.3280554070222e-10,-4.341029176872e-10,3775.2996665931,3775.2996665961,-5.7731899380793e-10,-5.745179240552e-10,-5.0326136351074e-10,-5.0030901940829e-10,3775.2996665961,2.7484769062015e-13,1.2571835844598e-13,-3.0469706772767e-10,-4.8940325233239e-13,-3.0566668599018e-10,4646.3809652307,-5.3266749756551e-10,-5.3426422054385e-10,4646.3809652281,4658.9259485832,-7.1364223179904e-10,-7.1019177663878e-10,-6.2225107190384e-10,-6.186139359353e-10,4658.9259485832
0.84,-4.8905722931974e-10,-4.9149190518368e-10,3817.3732861645,3817.3732861671,-5.9968942109981e-10,-6.0256092872104e-10,-4.8895418625157e-10,-4.9107703205488e-10,3817.3732861671,8.9696838767874e-13,-2.2631742325353e-13,-3.3366298952405e-10,-4.3104276396567e-13,-3.3470510151437e-10,4708.0887442936,-6.0316994542285e-10,-6.0617270914851e-10,4708.0887442911,4720.7856695877,-7.4340886678574e-10,-7.4697218664191e-10,-6.0646723949342e-10,-6.0910472063366e-10,4720.7856695877
0.85,-5.4547451796465e-10,-5.4714512476836e-10,3859.386864281,3859.3868642835,-6.3116873118094e-10,-6.2981318771577e-10,-4.8290930266512e-10,-4.8102573362245e-10,3859.3868642835,1.6786532725314e-15,-2.102119991212e-13,-3.6259616588777e-10,-5.5698699973036e-13,-3.6307412521e-10,4769.927027749,-6.7416761721072e-10,-6.7623236812219e-10,4769.9270277467,4782.7759060748,-7.8457537933822e-10,-7.8290701326001e-10,-6.0084370187511e-10,-5.9852097589501e-10,4782.7759060748
0.86,-6.0127813679432e-10,-6.0318276626104e-10,3901.3409454814,3901.3409454826,-6.6119231354787e-10,-6.5703407676463e-10,-4.7485122205484e-10,-4.702820493508e-10,3901.3409454826,8.7967724095672e-13,-2.383424920147e-13,-3.9118218140055e-10,1.2576071629929e-12,-3.9201619467867e-10,4831.8956316194,-7.4469605275806e-10,-7.4705497778633e-10,4831.8956316172,4844.8964738304,-8.2409559773877e-10,-8.1894318538647e-10,-5.9268713851408e-10,-5.8702440367998e-10,4844.8964738304
0.87,-6.5572780711794e-10,-6.5758022021888e-10,3943.2360674865,3943.2360674881,-6.9184067793754e-10,-6.8139929413803e-10,-4.6710221166152e-10,-4.5642455337166e-10,3943.2360674881,1.4147624603828e-12,-2.5763147501774e-13,-4.1965706178579e-10,8.5671949369805e-13,-4.2007743108837e-10,4893.994372829,-8.1383111313113e-10,-8.1613016374261e-10,4893.9943728269,4907.1471895497,-8.645415456034e-10,-8.5156096576307e-10,-5.8486649843519e-10,-5.7159188758038e-10,4907.1471895497
0.88,-7.1021893517532e-10,-7.1247003389994e-10,3985.072761308,3985.0727613088,-7.2103407975282e-10,-7.1481883905189e-10,-4.5744931775465e-10,-4.5067320490151e-10,3985.0727613088,-8.5600340148073e-13,-2.2285028821032e-13,-4.4798591915902e-10,-9.3061834511412e-13,-4.4854075620851e-10,4956.2230691965,-8.8329716457657e-10,-8.8609684932469e-10,4956.2230691946,4969.5278708169,-9.0332818454867e-10,-8.955928189804e-10,-5.7462858493526e-10,-5.6619379178829e-10,4969.5278708169
0.89,-7.6403116265705e-10,-7.6629998761416e-10,4026.8515513554,4026.8515513563,-7.4599142174093e-10,-7.495333251011e-10,-4.4325256161502e-10,-4.4599739154533e-10,4026.8515513563,-1.787736662931e-12,-1.753483670994e-13,-4.760676995728e-10,-2.0603606624438e-12,-4.7688015695035e-10,5018.5815394277,-9.5219618591754e-10,-9.5502377538806e-10,5018.5815394259,5032.0383361113,-9.3696853701625e-10,-9.4140625453007e-10,-5.5865969434954e-10,-5.621013721523e-10,5032.0383361113
0.9,-8.1677010781928e-10,-8.1928702032422e-10,4068.5729555399,4068.5729555397,-7.7783332216414e-10,-7.7169858195075e-10,-4.3557865335745e-10,-4.2826576435597e-10,4068.5729555397,-8.2150945687549e-14,-1.6533685732027e-13,-5.0401098386231e-10,4.392358438589e-13,-5.0480643514002e-10,5081.0696031077,-1.0200298268992e-09,-1.0231730930425e-09,5081.069603106,5094.6784047887,-9.7934744227727e-10,-9.7169059360009e-10,-5.5077519122955e-10,-5.416430613533e-10,5094.6784047887
0.91,-8.7010642531918e-10,-8.713837991803e-10,4110.2374853774,4110.2374853773,-8.0965145678369e-10,-8.0902855672473e-10,-4.2694855217698e-10,-4.2553728480242e-10,4110.2374853773,5.9752359406858e-14,-1.6371730129141e-13,-5.318440378023e-10,-2.9870259440491e-13,-5.3219246038342e-10,5143.6870806941,-1.0888799478531e-09,-1.0904784957351e-09,5143.6870806925,5157.4478970841,-1.0218640232323e-09,-1.0210968494922e-09,-5.4165569035766e-10,-5.3989928828985e-10,5157.4478970841
0.92,-9.2264765747082e-10,-9.2344571116692e-10,4151.8456460889,4151.8456460887,-8.4205819484858e-10,-8.3244920607699e-10,-4.1886497932456e-10,-4.0862920062401e-10,4151.8456460887,-1.6704948636036e-13,-4.0514077046703e-14,-5.5950449529188e-10,-1.8438458695657e-13,-5.59756020123e-10,5206.4337935094,-1.1570044632758e-09,-1.1580052263307e-09,5206.433793508,5220.346634095,-1.0652730170196e-09,-1.0532097707661e-09,-5.3316863103072e-10,-5.2031728691063e-10,5220.346634095
0.93,-9.7470891250034e-10,-9.7642531507776e-10,4193.3979366992,4193.3979366986,-8.6682319707459e-10,-8.6416265684717e-10,-4.0265364131196e-10,-3.9891378190658e-10,4193.3979366986,-1.0983138505542e-13,-2.4694218268903e-13,-5.8708208495433e-10,-3.8203327194052e-13,-5.874190645886e-10,5269.3095637341,-1.2247926555085e-09,-1.2269494402098e-09,5269.3095637328,5283.3744377802,-1.0992227045826e-09,-1.0958909229721e-09,-5.1440304216758e-10,-5.0971139740045e-10,5283.3744377802
0.94,-1.0256973040258e-09,-1.0266121641004e-09,4234.8948501336,4234.8948501332,-8.9842525777543e-10,-9.0121690543416e-10,-3.9284615841791e-10,-3.9515705286317e-10,4234.8948501332,1.7379483623877e-13,-4.9160542072284e-13,-6.1444936166741e-10,2.4242014808114e-13,-6.1487157180254e-10,5332.3142143996,-1.2914937696162e-09,-1.2926457040921e-09,5332.3142143984,5346.5311309524,-1.1419212779379e-09,-1.1454521901466e-09,-5.036304845339e-10,-5.065544484917e-10,5346.5311309524
0.95,-1.076290804394e-09,-1.0772870290425e-09,4276.336873313,4276.3368733117,-9.3680319607626e-10,-9.238113750725e-10,-3.8960591916974e-10,-3.7611752169457e-10,4276.3368733117,1.051305682596e-12,-4.7659829769499e-13,-6.4128491747003e-10,4.9653312648313e-13,-6.4182773764712e-10,5395.4475693812,-1.3579544307545e-09,-1.3592113658411e-09,5395.4475693802,5409.8165372669,-1.1933402990659e-09,-1.1769240327615e-09,-5.011037037146e-10,-4.8405923909785e-10,5409.8165372669
0.96,-1.1258462522541e-09,-1.1274821357022e-09,4317.724487247,4317.7244872458,-9.5930268746971e-10,-9.6280574273808e-10,-3.704945254499e-10,-3.7309396520041e-10,4317.7244872458,-6.2346980329887e-13,-1.6481864560466e-13,-6.681625945895e-10,1.8327542721069e-13,-6.6879072867857e-10,5458.7094533915,-1.4233579744136e-09,-1.4254261500161e-09,5458.7094533906,5473.2304812227,-1.2248292804559e-09,-1.2292820108257e-09,-4.7844474631554e-10,-4.817520363011e-10,5473.2304812227
0.97,-1.1751591945269e-09,-1.1766140369982e-09,4359.058167125,4359.0581671234,-9.9204050516066e-10,-9.948563237176e-10,-3.6100630111999e-10,-3.6288613838764e-10,4359.0581671234,5.9665566276331e-13,-1.6875482620906e-14,-6.946943461798e-10,4.3759807955195e-13,-6.9469797245766e-10,5522.0996919729,-1.4887037468452e-09,-1.4905467562418e-09,5522.0996919721,5536.7727881461,-1.2694279168761e-09,-1.2730176621736e-09,-4.6790316649006e-10,-4.7030405044779e-10,5536.7727881461
0.98,-1.2233142408658e-09,-1.2255921250012e-09,4400.3383824065,4400.3383824044,-1.0280874681666e-09,-1.0261395405161e-09,-3.5475867867052e-10,-3.5170458171246e-10,4400.3383824044,-6.5171357549687e-13,1.0555973806517e-13,-7.211225524038e-10,1.8119493091542e-13,-7.2171804436811e-10,5585.6181114918,-1.5528274387135e-09,-1.5557188960918e-09,5585.6181114912,5600.4432841913,-1.3183926643485e-09,-1.3159330102753e-09,-4.6142682002504e-10,-4.5755931093457e-10,5600.4432841913
0.99,-1.2708814295209e-09,-1.2737711116617e-09,4441.5655969084,4441.5655969061,-1.0538066587519e-09,-1.0545849093574e-09,-3.3817964980535e-10,-3.3785522380114e-10,4441.5655969061,1.3616757377106e-12,-7.7610012511735e-14,-7.4705339976285e-10,1.1153826389586e-12,-7.4787290824678e-10,5649.2645391312,-1.6164447505244e-09,-1.6201201614782e-09,5649.2645391307,5664.241796331,-1.3543679500635e-09,-1.3553775597299e-09,-4.4174281232333e-10,-4.4134620006102e-10,5664.241796331
1,-1.3187155688518e-09,-1.3213341064609e-09,4482.7402688919,4482.7402688891,-1.1012694641689e-09,-1.0972956247159e-09,-3.4237327851112e-10,-3.3725565661776e-10,4482.7402688891,1.4138085745411e-12,3.3758119287755e-13,-7.7275356468854e-10,9.9836939551285e-13,-7.7354742633536e-10,5713.0388028847,-1.680640135923e-09,-1.6839773372932e-09,5713.0388028843,5728.1681523487,-1.4182447471642e-09,-1.413188402163e-09,-4.4850643959522e-10,-4.4198853810065e-10,5728.1681523487
1.001,7.0415028606623,-1.2696553701517e-11,4482.724676582,4482.7390156039,2.5169917223788e-06,1.8061686410278e-11,7.0415085469284,5.4087209674754e-11,4482.7334851823,0.025227965389308,5.5125898957509e-13,8.9740559158749,0.0035050153717899,5.7070996716931e-11,5713.0342259051,8.9740946873172,-1.6181215391306e-11,5713.0411647712,5728.1817247087,-0.023748469135025,1.0729060187894e-11,8.9741044386663,5.6763569137715e-11,5728.1746950752
1.002,14.082956720027,-1.2911045970949e-11,4482.6980234623,4482.7377623388,5.0293781148625e-06,8.5254112051751e-12,14.082995760571,4.4634875768454e-11,4482.7156406724,0.078648774113464,6.3996432947608e-13,17.948018168546,0.0070100239844357,5.6933316005712e-11,5713.0014561095,17.948196774042,-1.6454640533697e-11,5713.0294300546,5728.1952598906,-0.047485823095351,-1.4248454948188e-12,17.948240467175,4.4717041972498e-11,5728.1671412724
1.003,21.124344203657,-1.2419430040584e-11,4482.660309648,4482.7365090964,7.536573602529e-06,9.9032729004931e-12,21.124444266037,4.5840055580874e-11,4482.6867354122,0.16026198440368,7.5749225096699e-13,26.921798187883,0.01051502546982,5.7243057645059e-11,5712.9404939396,26.922284116937,-1.5828156060133e-11,5713.0035987174,5728.2087579157,-0.07121200402293,3.3177547352232e-13,26.922385942045,4.6253124689143e-11,5728.1454908607
1.004,28.165647937371,-1.2687550961015e-11,4482.611535282,4482.7352558761,1.0038561865322e-05,1.1266469148678e-11,28.165836689071,4.718295681461e-11,4482.6467694787,0.27006687649777,7.8219831029619e-13,35.895307405544,0.014020019829075,5.7133880539497e-11,5712.8513401149,35.896334572746,-1.6169930222272e-11,5712.963670777,5728.2222188006,-0.094926953342878,2.0692356722941e-12,35.896518720304,4.7964747137193e-11,5728.1097437912
1.005,35.206850547272,-1.3067515196004e-11,4482.5517005343,4482.7340026772,1.2535316978202e-05,1.668564171244e-11,35.207155655551,5.2858108928538e-11,4482.5957429763,0.4080624523925,8.6455654655566e-13,44.868457255914,0.017525007064103,5.6873439185684e-11,5712.7339956335,44.870325998232,-1.6654248726627e-11,5712.9096462855,5728.2356425624,-0.11863061252048,8.9749299368746e-12,44.870616658835,5.5197729403162e-11,5728.0599000496
1.006,42.247934659791,-1.3401639336035e-11,4482.4808056023,4482.732749503,1.5026803822593e-05,1.463018135052e-11,42.248383791571,5.0943560405293e-11,4482.5336560403,0.57424743584923,9.4990687439703e-13,53.841159176973,0.021029987172881,5.6509688272613e-11,5712.5884617717,53.844236250228,-1.7080148927151e-11,5712.8415253298,5728.249029223,-0.1423229230682,6.3548220098674e-12,53.844657614468,5.2757811303244e-11,5727.9959596613
1.007,49.288882901729,-1.3476046179569e-11,4482.3988507107,4482.73149635,1.7513000951652e-05,7.1381245708648e-12,49.289503723416,4.3513689870832e-11,4482.4605088267,0.7686202724059,1.0650865046678e-12,62.813324611175,0.024534960153702,5.65785457493e-11,5712.4147400838,62.818043185697,-1.7175046107543e-11,5712.7593080319,5728.2623787955,-0.16600382649535,-3.1938687805599e-12,62.818619443977,4.3288659671279e-11,5727.9179226777
1.008,56.329677900302,-1.3183492058449e-11,4482.3058361114,4482.730243219,1.9993877355517e-05,7.8344737246055e-12,56.330498077677,4.4048132017403e-11,4482.3763015232,0.99117912939919,1.1666812656294e-12,71.784865006321,0.028039926004458,5.6722785485557e-11,5712.2128324026,71.791724661785,-1.6802255008337e-11,5712.662994548,5728.2756912994,-0.18967326436086,-2.3058220914238e-12,71.792480004193,4.3969920559368e-11,5727.8257891911
1.009,63.37030228318,-1.3049082973025e-11,4482.2017620837,4482.7289901115,2.2469422802374e-05,2.4037699185731e-12,63.371349481293,3.8477242157958e-11,4482.2810343452,1.2419218959792,1.2881874323111e-12,80.755691816431,0.03154488472671,5.6920601356771e-11,5711.9827408388,80.765258535871,-1.6631016442475e-11,5712.5525850696,5728.2889667543,-0.21333117822613,-9.2267865304521e-12,80.76621715208,3.6869936438774e-11,5727.7195593286
1.01,70.410738678535,-1.2913628445656e-11,4482.086628934,4482.7277370256,2.493959721761e-05,6.4806058739861e-12,70.412040561497,4.2620067035055e-11,4482.1747075323,1.5208461831235,1.3278112532659e-12,89.72571650262,0.035049836313632,5.6640577834497e-11,5711.7244677815,89.73862266563,-1.6458443549e-11,5712.4280798227,5728.302205176,-0.23697750971264,-4.0310771078555e-12,89.739808744661,4.2150086657197e-11,5727.5992332485
1.011,77.450969715078,-1.331502995968e-11,4481.9604369962,4482.7264839624,2.7404372080042e-05,1.122985069464e-11,77.452553945978,4.7518284120897e-11,4482.0573213542,1.8279493236787,1.4184522849505e-12,98.694850533971,0.038554780773038,5.6255318600044e-11,5711.4380158979,98.71179490908,-1.6970096118271e-11,5712.2894790683,5728.3154065842,-0.26061220046151,2.0213332553977e-12,98.713232639215,4.8393022404549e-11,5727.4648111473
1.012,84.490978022107,-1.2964872448187e-11,4481.8231866313,4482.7252309218,2.9863725483636e-05,4.4478067740385e-12,84.492872262862,4.0497097713557e-11,4481.9288761067,2.1632283723648,1.5327442921375e-12,107.66300538841,0.042059718095999,5.6876299432988e-11,5711.1233881331,107.68475312464,-1.6523883173206e-11,5712.1367831019,5728.3285709971,-0.28423519213196,-6.6216736141576e-12,107.68646669327,3.9444542684203e-11,5727.3162932548
1.013,91.530746229547,-1.2830553243123e-11,4481.6748782278,4482.723977903,3.2317635007217e-05,3.6540312876171e-13,91.532978140756,3.6405835960348e-11,4481.7893721124,2.5266801058256,1.5863159479837e-12,116.63009255357,0.045564648287714,5.6735337483843e-11,5710.7805877106,116.65747517119,-1.6352754762285e-11,5711.969992254,5728.3416984322,-0.30784642641129,-1.1824766345129e-11,116.65948876464,3.4230251608463e-11,5727.153679835
1.014,98.570256967995,-1.3181887222394e-11,4481.5155122014,4482.7227249067,3.4766057449787e-05,9.1906253793387e-12,98.572854208802,4.5454538191107e-11,4481.6388097222,2.9183010226388,1.6965710257903e-12,125.5960235277,0.049069571342494,5.6582502626443e-11,5710.4096181317,125.62993890811,-1.6800600515822e-11,5711.7891068897,5728.3547889086,-0.33144584504489,-5.7746624322619e-13,125.63227671152,4.5763147828518e-11,5726.9769711879
1.015,105.60949286876,-1.2642454791378e-11,4481.3450889949,4482.7214719336,3.7208997870408e-05,3.7717456382539e-12,105.61248309678,3.9775069549846e-11,4481.4771893148,3.3380873433735,1.7390039324118e-12,134.56070982047,0.052574487261814,5.6871498531558e-11,5710.0104831758,134.60212219535,-1.6113144889543e-11,5711.5941274092,5728.367842446,-0.35503338974626,-7.4831486764505e-12,134.60480839257,3.8524613918877e-11,5726.786167649
1.016,112.64843656391,-1.3327472697493e-11,4481.1636090786,4482.7202189818,3.9646406065685e-05,1.5984522597689e-11,112.65184743496,5.236496146096e-11,4481.3045112933,3.7860350106086,1.9034857257706e-12,143.52406295392,0.056079396042914,5.6510398248853e-11,5709.5831869005,143.57400289348,-1.6986284449329e-11,5711.3850542471,5728.3808590608,-0.37860900232338,8.0811657008056e-12,143.5770616668,5.4570972659327e-11,5726.581269585
1.017,119.6870706863,-1.2746107988515e-11,4480.97107295,4482.7189660525,4.2078259692602e-05,6.4873171667489e-12,119.69092985439,4.2557736035318e-11,4481.1207760914,4.2621396889853,1.9678905518474e-12,152.48599446328,0.059584297685989,5.68076695981e-11,5709.1277336409,152.54555886375,-1.6245379824351e-11,5711.161887873,5728.3938387732,-0.40217262458431,-4.0223612472485e-12,152.54901439386,4.2071415714282e-11,5726.3622774013
1.018,126.72537786965,-1.3336157482155e-11,4480.7674811339,4482.7177131461,4.4504531459211e-05,2.3867233330758e-12,126.72971298679,3.8635897324328e-11,4480.925984169,4.7663967652436,2.006193838273e-12,161.44641589788,0.063089192189076,5.6581199876218e-11,5708.6441280104,161.51676796813,-1.6997485233552e-11,5710.9246287912,5728.4067816026,-0.42572419837114,-9.249325806128e-12,161.52064443394,3.7072968637033e-11,5726.1291915371
1.019,133.76334074854,-1.2823357068044e-11,4480.5528341824,4482.7164602616,4.6925199825409e-05,1.1252788306194e-11,133.76817946461,4.7304662872385e-11,4480.7201360119,5.2988013482715,2.1271019139319e-12,170.40523882199,0.066594079551971,5.6709900339048e-11,5708.1323749001,170.48760806937,-1.634396394265e-11,5710.6732775408,5728.4196875665,-0.44926366554568,2.051700470759e-12,170.49192964787,4.812184960408e-11,5725.8820124643
1.02,140.8009419585,-1.2903747298107e-11,4480.3271326748,4482.7152074,4.934022829417e-05,9.2125715693211e-12,140.80631192112,4.5250478196293e-11,4480.5032321357,5.8593482691536,2.200611117688e-12,179.36237481571,0.070098959775183,5.6746395343116e-11,5707.5924794788,179.45805703106,-1.6446488919006e-11,5710.4078346957,5728.4325566856,-0.47279096802322,-5.4879093890764e-13,179.46284789717,4.5503797263405e-11,5725.6207406928
1.021,147.83816413602,-1.2236081288822e-11,4480.0903772178,4482.7139545604,5.1749616744701e-05,4.4655250905443e-12,147.8440929904,4.0333538023135e-11,4480.2752730807,6.4480320812137,2.3244318287914e-12,188.31773547586,0.073603832852087,5.6816479309957e-11,5707.0244471933,188.4280927177,-1.5595573877453e-11,5710.1283008646,5728.4453889777,-0.49630604769803,-6.5986602846343e-12,188.43337704412,3.9236981800575e-11,5725.3453767642
1.022,154.8749899186,-1.3383644778368e-11,4479.8425684452,4482.7127017436,5.415332059755e-05,1.0546193882381e-11,154.88150530743,4.6864828641066e-11,4480.0362594165,7.0648470600839,2.393290076278e-12,197.2712324168,0.077108698785947,5.6089596780096e-11,5706.4282837678,197.3976929947,-1.7058274931481e-11,5709.8346766908,5728.458184463,-0.51980884655495,1.1501230469304e-12,197.40349495179,4.7561642206031e-11,5725.0559212573
1.023,161.9114019448,-1.2089931920173e-11,4479.5837070182,4482.7114489485,5.6551297404894e-05,6.5146882842742e-12,161.91853150805,4.2304330448873e-11,4479.7861917382,7.7097872037507,2.5330256419936e-12,206.22277727136,0.080613557576477,5.6843616998755e-11,5705.8039952044,206.36683572852,-1.540941766548e-11,5709.5269628525,5728.4709431597,-0.54329930660304,-3.9864747787555e-12,206.37317948405,4.1749099349061e-11,5724.7523747834
1.024,168.94738285428,-1.2603076134793e-11,4479.3137936253,4482.7101961756,5.8943542406098e-05,1.057789877283e-11,168.95515422913,4.6571285835986e-11,4479.5250706695,8.3828462326143,2.5548308077666e-12,215.17228169168,0.084118409222536,5.6528414327933e-11,5705.1515877827,215.33549878663,-1.60635166193e-11,5709.2051600627,5728.4836650876,-0.56677736983627,1.191589307694e-12,215.34240850577,4.7187758474981e-11,5724.4347379904
1.025,175.98291528784,-1.2927986155556e-11,4479.0328289821,4482.7089434256,6.1330029772932e-05,1.1244045245665e-11,175.99135610857,4.7385506271851e-11,4479.2528968616,9.0840175895541,2.6962060005692e-12,224.1196573501,0.087623253718123,5.6442067220084e-11,5704.4710680598,224.30366003765,-1.6477701581669e-11,5708.8692690691,5728.4963502672,-0.5902429783067,2.0399399400586e-12,224.31115988277,4.8225663967869e-11,5724.1030115611
1.026,183.01798188746,-1.3145389290981e-11,4478.7408138316,4482.7076906977,6.371073401823e-05,5.8001641141912e-12,183.02711978523,4.1937447655196e-11,4478.9696709916,9.8132944399946,2.729572517245e-12,233.06481594,0.091128091067073,5.6303401719561e-11,5703.7624428702,233.27129735133,-1.6754864206117e-11,5708.5192906543,5728.5089987171,-0.613696074094,-4.8981978954636e-12,233.27941148184,4.1281799593312e-11,5723.7571962116
1.027,190.05256529637,-1.2753599608686e-11,4478.437748944,4482.7064379915,6.6085623380729e-05,9.2135141475849e-12,190.06242789908,4.5240392161638e-11,4478.6753937645,10.570669671969,2.8151613019076e-12,242.00766917672,0.094632921265744,5.6398830755328e-11,5703.0257193258,242.23838859867,-1.6255559832229e-11,5708.1552256354,5728.5216104567,-0.63713659931735,-5.4734564320161e-13,242.24714117086,4.5491803249767e-11,5723.3972926931
1.028,197.08664815904,-1.2914124847621e-11,4478.1236351169,4482.7051853085,6.8454649252203e-05,5.8180886323977e-12,197.0972630913,4.1773229650767e-11,4478.3700659139,11.356135896196,2.9176941455055e-12,250.94812879838,0.098137744317374,5.657161127352e-11,5702.2609048161,251.20491165193,-1.6460227278414e-11,5707.7770748644,5728.5341855073,-0.66056449615178,-4.8750574974457e-12,251.21432681887,4.107269195976e-11,5723.0233017936
1.029,204.12021312127,-1.3429569956092e-11,4477.798473175,4482.7039326468,7.0817832465764e-05,4.4208622765156e-12,204.13160800416,4.074493867301e-11,4478.0536881977,12.16968544614,2.9959933493774e-12,259.8861065668,0.10164256021417,5.616698317383e-11,5701.4680070074,260.17084438469,-1.7117274177941e-11,5707.3848392281,5728.5467238866,-0.68397970670856,-6.6568424492326e-12,260.18094629604,3.9762152609108e-11,5722.635224332
1.03,211.15324283022,-1.3495362379684e-11,4477.4622639703,4482.7026800079,7.317512203997e-05,1.2589746085923e-11,211.16544528121,4.8884279328469e-11,4477.7262614042,13.011310378106,3.0516097393701e-12,268.82151426831,0.10514736895889,5.611769561412e-11,5700.6470338435,269.13616467194,-1.7201200967071e-11,5706.9785196482,5728.5592256165,-0.70738217322857,3.7552554924165e-12,269.14697747385,5.0136695630646e-11,5722.233061166
1.031,218.18571993443,-1.3146206996259e-11,4477.1150083821,4482.7014273906,7.5526488735989e-05,9.192761786167e-12,218.19875756719,4.5431849092243e-11,4477.3877863467,13.881002471299,3.2341902322496e-12,277.7542637147,0.10865217055138,5.6325040877041e-11,5699.7979935452,278.10085039009,-1.6756231168216e-11,5706.5581170807,5728.5716907155,-0.73077183795129,-5.7450853969965e-13,278.11239822498,4.5736323907829e-11,5721.8168131852
1.032,225.21762708391,-1.2763430503465e-11,4476.7567073169,4482.7001747969,7.7871903911841e-05,5.8115634158327e-12,225.23152750829,4.1833509638149e-11,4477.0382638683,14.77875322792,3.3165441218536e-12,286.68426674402,0.11215696498869,5.6545644685699e-11,5698.9208946101,287.06487941705,-1.6268405025888e-11,5706.1236325168,5728.5841192063,-0.75414864315267,-4.8835972700674e-12,287.0771864236,4.1149947490292e-11,5721.3864813171
1.033,232.24894693012,-1.2904154958124e-11,4476.3873617085,4482.6989222244,8.0211353242987e-05,1.1941558256557e-11,232.26373775184,4.7907229127741e-11,4476.6776948354,15.70455387324,3.3284125543871e-12,295.61143522148,0.11566175226919,5.6548719970951e-11,5698.0157458131,296.02822963226,-1.6447836148625e-11,5705.6750669823,5728.596511106,-0.77751253111402,2.9298194187573e-12,296.04131994507,4.8891732567884e-11,5720.942066519
1.034,239.27966212609,-1.3086173204085e-11,4476.0069725179,4482.6976696749,8.2544794182127e-05,9.8818195379963e-12,239.29537094676,4.6033446748483e-11,4476.3060801461,16.658395355692,3.477460252941e-12,304.53568104034,0.11916653239226,5.6317707441966e-11,5697.0825562057,304.9908789168,-1.6679905069997e-11,5705.2124215377,5728.6088664375,-0.8008634441928,3.0398887617203e-13,305.00477666642,4.6503497829874e-11,5720.4835697884
1.035,246.30975532637,-1.3482576817145e-11,4475.6155407334,4482.6964171472,8.4872228327981e-05,3.0640071100978e-12,246.32640974326,3.9347169240259e-11,4475.923420722,17.640268346961,3.5305666302012e-12,313.45691612272,0.12267130535806,5.6219128256787e-11,5696.1213351162,313.95280515337,-1.7185237824804e-11,5704.7356972783,5728.6211852193,-0.82420132471575,-8.3864262106007e-12,313.96753446605,3.7981101011671e-11,5720.0109921532
1.036,253.33920918716,-1.3626741445297e-11,4475.2130673704,4482.6951646416,8.7193603064861e-05,4.4150641801376e-12,253.35683679308,4.0798657475419e-11,4475.529717514,18.650163242072,3.5967606863241e-12,322.37505242054,0.12617607116284,5.5999212970718e-11,5695.1320921496,322.91398622639,-1.73690597495e-11,5704.244895334,5728.6334674727,-0.84752611511441,-6.6645415856999e-12,322.92957122395,3.9831321726157e-11,5719.5243346783
1.037,260.36800636631,-1.3178269456585e-11,4474.7995534718,4482.6939121581,8.9508909667302e-05,1.5990384905941e-11,260.38663474951,5.2304441105957e-11,4475.1249715,19.688070159489,3.736826105304e-12,331.29000191634,0.1296808298079,5.6339766836208e-11,5694.1148371874,331.87440002208,-1.6797488747167e-11,5703.7400168697,5728.645713218,-0.87083775779587,8.0894777096559e-12,331.89086482177,5.4497136350081e-11,5719.0235984631
1.038,267.39612952336,-1.2644796884911e-11,4474.3750001075,4482.6926596968,9.1818120594667e-05,9.905853643865e-12,267.41578626737,4.581010570881e-11,4474.709183685,20.753978941212,3.8464330936387e-12,340.20167662415,0.13318558129105,5.6631602836019e-11,5693.0695803875,340.83402442842,-1.6117570819651e-11,5703.2210630849,5728.6579224763,-0.89413619522386,3.3558556324434e-13,340.85139314284,4.6219323778397e-11,5718.5087846416
1.039,274.42356131959,-1.2933688842143e-11,4473.9394083748,4482.6914072576,9.412119469232e-05,6.4907708114542e-12,274.44427400306,4.2525513167281e-11,4474.282355101,21.847879152873,3.9161631497863e-12,349.10998859041,0.1366903256099,5.6645854131475e-11,5691.9963321843,349.79283733532,-1.6485865624027e-11,5702.6880352138,5728.6700952681,-0.91742136991159,-4.0179044444831e-12,349.81113407214,4.2032741870424e-11,5717.9798943823
1.04,281.45028441807,-1.303701786283e-11,4473.492779398,4482.6901548405,9.641812177108e-05,1.3976660540732e-11,281.47208061469,5.0003549694963e-11,4473.8444868076,22.969760083849,3.9990372802503e-12,358.01484989476,0.14019506276686,5.6487650603072e-11,5690.8951032885,358.75081663459,-1.6617638255029e-11,5702.1409345253,5728.6822316143,-0.94069322436563,5.524075120944e-12,358.77006549652,5.1564764556779e-11,5717.4369288887
1.041,288.47628148369,-1.2967248802509e-11,4473.035114329,4482.6889024459,9.8708857549923e-05,1.3298636443362e-11,288.49918876203,4.930001708519e-11,4473.3955798918,24.119610747357,4.0570171462757e-12,366.91617265098,0.14369979275946,5.659126964784e-11,5689.7659046868,367.70794022003,-1.6528772274482e-11,5701.5797623232,5728.6943315364,-0.96395170116987,4.6599650136911e-12,367.72816530465,5.0668138467432e-11,5716.8798893996
1.042,295.50153518323,-1.3046479912029e-11,4472.5664143466,4482.6876500735,0.00010099341155012,1.0565707434396e-11,295.52558110659,4.6684307895145e-11,4472.9356354673,25.297419880566,4.1474917101517e-12,375.81386900781,0.14720451558288,5.6393327290891e-11,5688.608747642,376.66418598749,-1.6629826855852e-11,5701.0045199459,5728.7063950549,-0.98719674287107,1.1755800868353e-12,376.68541138708,4.7334111836269e-11,5716.3087771873
1.043,302.52602818535,-1.2943264082049e-11,4472.086680657,4482.6863977231,0.00010327171777647,-1.6779410976983e-12,302.5512403116,3.4388749443545e-11,4472.464654675,26.503175944712,4.1914815802208e-12,384.70785114983,0.15070923124018,5.6448662042428e-11,5687.4236436928,385.6195318349,-1.649832831116e-11,5700.4152087664,5728.718422191,-1.0104282921459,-1.443034559033e-11,385.64178163625,3.1661481487803e-11,5715.7235935595
1.044,309.54974316069,-1.3014861540914e-11,4471.5959144935,4482.6851453948,0.00010554376837035,1.0574351832528e-11,309.57614904219,4.6596754070278e-11,4471.9826386836,27.73686712521,4.2619296560333e-12,393.59803129834,0.15421393972844,5.6535577543267e-11,5686.2106046539,394.57395566234,-1.6589654563276e-11,5699.8118301928,5728.730412966,-1.0336462916306,1.1877750302411e-12,394.59725394669,4.7222799021834e-11,5715.1243398586
1.045,316.57266278189,-1.2598659528823e-11,4471.0941171167,4482.6838930881,0.00010780954150391,6.4901150859803e-12,316.60028996528,4.25292806072e-11,4471.4895886881,28.99848133177,4.3956527870717e-12,402.4843217122,0.15771864104687,5.6291989949594e-11,5684.9696426155,403.52743537209,-1.60591947726e-11,5699.1943856676,5728.7423674005,-1.0568506840111,-4.0185342575251e-12,403.55180621491,4.2038197846806e-11,5714.511017461
1.046,323.5947697236,-1.2561091706706e-11,4470.5812898143,4482.6826408052,0.00011006899826782,7.1816529502791e-12,323.62364574987,4.3107339041653e-11,4470.9855059134,30.288006198517,4.5592642210429e-12,411.36663468873,0.16122333519427,5.6435706151728e-11,5683.7007699435,412.47994886871,-1.6011371048452e-11,5698.562876668,5728.7542855186,-1.0800414120345,-3.1366784170039e-12,412.50541633975,4.2775150934336e-11,5713.8836277813
1.047,330.61604666259,-1.238204590942e-11,4470.0574339015,4482.6813885426,0.00011232213660151,1.3306708436956e-11,330.64619906656,4.9224059507288e-11,4470.4703916064,31.605429084111,4.6857243765955e-12,420.24488256455,0.16472802216941,5.6247001088867e-11,5682.4039992792,421.43147405904,-1.578320460438e-11,5697.917304706,5728.7661673376,-1.1032184184235,4.6706885321185e-12,421.45806222176,5.0572175895776e-11,5713.2421722619
1.048,337.63647627773,-1.2864724910355e-11,4469.5225507204,4482.6801363032,0.00011456890673855,1.3962497336702e-11,337.66793258833,5.0131870714138e-11,4469.944247047,32.950737071875,4.6554980871879e-12,429.11897771645,0.16823270196914,5.5966366198541e-11,5681.0793435392,430.38198885231,-1.6398534440076e-11,5697.2576713285,5728.7780128827,-1.1263816460076,5.5058400330252e-12,430.40972176422,5.1729491241763e-11,5712.5866523874
1.049,344.65604125008,-1.2638140967774e-11,4468.9766416403,4482.6788840857,0.00011680928852797,7.8502357609214e-12,344.68882898992,4.3899044772575e-11,4469.4070735386,34.323916969926,4.7657006582691e-12,437.98883256226,0.17173737459605,5.6130626080279e-11,5679.7268159155,439.33147116015,-1.6109771502903e-11,5696.5839781167,5728.789822174,-1.1495310376046,-2.2849900140412e-12,439.36037287234,4.3784654396063e-11,5711.9170696724
1.05,351.67472426289,-1.2874651431766e-11,4468.419708058,4482.6776318896,0.00011904327557488,1.5337595288874e-11,351.70887094823,5.1363159602261e-11,4468.8588724125,35.724955311293,4.8468864894389e-12,446.85435956171,0.17524204004534,5.6181623589446e-11,5678.3464298749,448.27989889669,-1.6411315882647e-11,5695.8962266867,5728.8015952326,-1.1726665360505,7.2589597093636e-12,448.30999345376,5.329930008631e-11,5711.233425667
1.051,358.69250800168,-1.260766621311e-11,4467.8517513973,4482.6763797166,0.00012127080405833,6.4954296281894e-12,358.72804114238,4.2480762343141e-11,4468.2996450292,37.153838354066,4.94815891413e-12,455.71547121729,0.17874669831848,5.6239839174577e-11,5676.9381991594,457.22724997856,-1.6071050740196e-11,5695.1944186895,5728.8133320825,-1.195788084293,-4.0116872497553e-12,457.25856141862,4.197697994323e-11,5710.5357219585
1.052,365.70937515426,-1.3094093084115e-11,4467.2727731091,4482.6751275644,0.00012349187981897,4.4296761354465e-12,365.74632225339,4.066329738206e-11,4467.7293927724,38.610552081516,5.0548119157187e-12,464.57208007513,0.18225134941116,5.5922491680807e-11,5675.5021377858,466.173502325,-1.669116537692e-11,5694.4785558104,5728.8250327426,-1.2188956252171,-6.6455918459191e-12,466.2060546792,3.9660346187742e-11,5709.8239601642
1.053,372.72530841078,-1.3240073534065e-11,4466.6827746716,4482.6738754353,0.00012570646833865,-1.0169777346636e-12,372.76369696485,3.5252554239466e-11,4467.148117058,40.095082202249,5.1385497622908e-12,473.42409872585,0.18575599332491,5.582736237273e-11,5674.0382600452,475.11863385788,-1.6877314216318e-11,5693.7486397697,5728.8366972382,-1.2419891018038,-1.3588974780501e-11,475.1524511507,3.2763270612149e-11,5709.098141942
1.054,379.74029046377,-1.2444815143675e-11,4466.0817575903,4482.672623328,0.00012791454410888,5.8076338334788e-12,379.78014796229,4.1872116125947e-11,4466.5558193253,41.607414150338,5.213237407411e-12,482.27143980542,0.18926063005951,5.6038897589157e-11,5672.5465805038,484.06262250175,-1.586364806877e-11,5693.0046723221,5728.8483255896,-1.2650684570498,-4.8890369834173e-12,484.09772875051,4.1201465958603e-11,5708.3582689796
1.055,386.75430400821,-1.2758334319574e-11,4465.4697233977,4482.6713712429,0.0001301160821896,1.194144018694e-11,386.79565793367,4.7900595328328e-11,4465.9525010422,43.147533085465,5.2839215343653e-12,491.11401599603,0.19276525961226,5.6095149900993e-11,5671.0271140018,493.00544618393,-1.6263358715296e-11,5692.2466552573,5728.8599178196,-1.288133633989,2.9305766797647e-12,493.04186539878,4.8886256371131e-11,5707.6043430017
1.056,393.7673317415,-1.2788341566261e-11,4464.8466736535,4482.6701191793,0.00013231104671263,7.8410958281872e-12,393.81020956918,4.3983660409554e-11,4465.338163703,44.715423893071,5.4013242446402e-12,499.95174002695,0.19626988198016,5.5950726365363e-11,5669.4798756537,501.94708283454,-1.6301671817986e-11,5691.4745903994,5728.8714739495,-1.3111845757022,-2.2970485106036e-12,501.98483901819,4.3893333954471e-11,5706.8363657663
1.057,400.77935636359,-1.243346918478e-11,4464.2126099446,4482.6688671374,0.00013449942360921,1.1945095357725e-11,400.82378556148,4.7866610794391e-11,4464.7128088301,46.311071184508,5.5043465851902e-12,508.78452467538,0.19977449716236,5.6358578936523e-11,5667.9048808482,510.88751038653,-1.5849365223031e-11,5690.6884796074,5728.882994002,-1.3342212252795,2.9353416398925e-12,510.92662753425,4.8843199775515e-11,5706.0543390673
1.058,407.79036057697,-1.2897950936452e-11,4463.5675338851,4482.6676151186,0.00013668118445764,5.8076550838414e-12,407.83636860575,4.1866838283982e-11,4464.0764379741,47.934459297189,5.5495441412829e-12,517.61228276735,0.20327910515886,5.6227418879749e-11,5666.3021452478,519.82670677579,-1.6441522622535e-11,5689.8883247747,5728.8944780015,-1.3572435258667,-4.8885699091214e-12,519.86720887538,4.1195161214549e-11,5705.2582647346
1.059,414.80032708673,-1.2524696123978e-11,4462.9114471164,4482.6663631222,0.00013885629734034,1.0610878386878e-11,414.84794139943,4.6258919112786e-11,4463.429052711,49.585572294743,5.6839359065773e-12,526.43492717851,0.20678370596922,5.6546489387611e-11,5664.6716847889,528.76464994116,-1.5965779913418e-11,5689.0741278295,5728.9059259697,-1.3802514206456,1.2355870450051e-12,528.80656097256,4.6794068511539e-11,5704.4481446304
1.06,421.80923860059,-1.2055690213481e-11,4462.2443513067,4482.6651111465,0.00014102475084599,1.0607771930814e-11,421.8584866424,4.6288637744855e-11,4462.7706546424,51.264393967167,5.7445513867689e-12,535.25237083506,0.21028829958931,5.6572454186499e-11,5663.0135156814,537.70131782451,-1.5367982494213e-11,5688.2458907348,5728.9173379269,-1.4032448528051,1.2314363938282e-12,537.74466175953,4.6832074785015e-11,5703.6239806499
1.061,428.81707782895,-1.2797854356122e-11,4461.5662481517,4482.6638591935,0.00014318651189171,8.5291376825808e-12,428.8679870374,4.4585658407446e-11,4462.1012454015,52.970907830997,5.8625592580389e-12,544.06452671459,0.21379288602092,5.598156692984e-11,5661.3276544089,546.63668837077,-1.6314118458927e-11,5687.4036154879,5728.9287138986,-1.4262237656048,-1.4189373417559e-12,546.68148917341,4.4661320865516e-11,5702.7857747281
1.062,435.82382748495,-1.1797762853455e-11,4460.8771393741,4482.6626072615,0.00014534155506851,1.2656187621356e-11,435.87642528941,4.8260787076718e-11,4461.4208266445,54.705097129461,5.9533677494077e-12,552.87130784689,0.21729746526119,5.6521553388165e-11,5659.6141177281,555.57073952802,-1.5039303569858e-11,5686.5473041212,5728.9400539055,-1.4491881023235,3.8432021237308e-12,555.61702115384,4.9346353717637e-11,5701.9335288297
1.063,442.82947028447,-1.2753490104267e-11,4460.1770267238,4482.6613553526,0.0001474898437408,7.8558881405275e-12,442.88378410642,4.3843013529561e-11,4460.7294000586,56.46694483265,6.0387698801959e-12,561.67262731488,0.22080203731202,5.622437975264e-11,5657.8729226689,564.50344924751,-1.6257689638977e-11,5685.6769587013,5728.9513579731,-1.472137806297,-2.2772687598496e-12,564.55123564395,4.3714846738145e-11,5701.067244959
1.064,449.83398894624,-1.314528434021e-11,4459.4659119777,4482.6601034648,0.00014963137056156,9.880141084613e-12,449.89004619868,4.6041150167549e-11,4460.0269673542,58.256433637678,6.0776303965632e-12,570.46839825543,0.2243066021629,5.6109934840759e-11,5656.1040865341,573.43479548372,-1.6757199360756e-11,5684.7925813297,5728.962626122,-1.4950728208522,3.026334608261e-13,573.48411058951,4.6517087924636e-11,5700.1869251497
1.065,456.8373661918,-1.2736475936415e-11,4458.7437969401,4482.6588515995,0.00015176610467904,1.123878756986e-11,456.89519427951,4.7416795858658e-11,4459.3135302721,60.073545968871,6.1906113373554e-12,579.25853386021,0.22781115982324,5.5964016190332e-11,5654.3076268994,582.36475619444,-1.6236124424085e-11,5683.8941741424,5728.9738583771,-1.517993089389,2.0350060612323e-12,582.4156239398,4.8270861266464e-11,5699.2925714743
1.066,463.8395847456,-1.2378133674301e-11,4458.0106834422,4482.6575997555,0.00015389401163191,9.2252559757977e-12,463.8992110647,4.512579849722e-11,4458.5890905778,61.918263977922,6.3924842795462e-12,588.04294737659,0.23131571028422,5.6355601934198e-11,5652.4835616131,591.29330934079,-1.5779384743286e-11,5682.9817393102,5728.9850547599,-1.540898555343,-5.3143492211027e-13,591.34575364699,4.5350457438843e-11,5698.3841860368
1.067,470.84062733503,-1.2549816654633e-11,4457.2665733425,4482.6563479342,0.00015601507425345,9.2055764053245e-12,470.90207927314,4.5305689321679e-11,4457.8536500665,63.79056954408,6.4093241483468e-12,596.82155210843,0.23482025355379,5.6195111823414e-11,5650.631908796,600.22043288731,-1.599829947338e-11,5682.0552790383,5728.9962152957,-1.5637891621693,-5.570463795096e-13,600.27447766686,4.5579901832016e-11,5697.4617709793
1.068,477.84047669047,-1.2406208005356e-11,4456.5114685265,4482.6550961347,0.00015812926099557,9.8963915404551e-12,477.9037816263,4.5893593287639e-11,4457.1072105582,65.69044427431,6.4874857872918e-12,605.59426141699,0.23832478962034,5.6314398456936e-11,5648.752686841,609.14610480197,-1.5815292218196e-11,5681.1147955667,5729.0073400066,-1.5866648533739,3.2362426540672e-13,609.20177395819,4.6329474544943e-11,5696.5253284753
1.069,484.83911554529,-1.2478064154858e-11,4455.7453709068,4482.6538443569,0.00016023655982167,9.8982808711609e-12,484.90430084866,4.5871310981431e-11,4456.3497739009,67.617869503502,6.5682374225965e-12,614.36098872177,0.24182931848564,5.6390044109872e-11,5646.8459144132,618.07030305627,-1.5906955440348e-11,5680.1602911698,5729.0184289161,-1.6095255724759,3.2657687318305e-13,618.12762048323,4.6301199202806e-11,5695.5748607343
1.07,491.83652663596,-1.2247042789626e-11,4454.9682824234,4482.6525926006,0.00016233692394962,1.0587420588674e-11,491.90361966754,4.6469218338736e-11,4455.5813419695,69.572826294638,6.6995952107416e-12,623.12164750135,0.24533384015054,5.6276071042777e-11,5644.9116104497,626.99300562526,-1.5612514319557e-11,5679.1917681569,5729.0294820474,-1.6323712630754,1.2054345152265e-12,627.05199520759,4.7063537312111e-11,5694.6103699999
1.071,498.83269270204,-1.242144147956e-11,4454.180205043,4482.6513408665,0.00016443035231362,5.8084973462991e-12,498.90172081342,4.186286961614e-11,4454.8019166672,71.55529543898,6.8265129334923e-12,631.87615129427,0.24883835461239,5.5995024047205e-11,5642.9497941592,635.91419048763,-1.5834895894518e-11,5678.2092288716,5729.0404994251,-1.6552018687534,-4.8879258930309e-12,635.97487610057,4.119144337688e-11,5693.6318585517
1.072,505.82759648623,-1.2201555738001e-11,4453.3811407597,4482.6500891544,0.00016651680677171,1.059184012199e-11,505.89858701963,4.6432103929968e-11,4454.0114999231,73.565257456265,6.8895028028891e-12,640.62441369984,0.25234286187147,5.6371400711415e-11,5640.9604850219,644.83383562573,-1.5554643510718e-11,5677.2126756923,5729.0514810726,-1.6780173331733,1.2109296855176e-12,644.89624113479,4.7016475998932e-11,5692.6393287027
1.073,512.82122073445,-1.2054910021597e-11,4452.5710915945,4482.6488374646,0.00016859624653875,1.1267763631861e-11,512.89420102264,4.7147133961679e-11,4453.2100936942,75.602692594893,7.0000699030695e-12,649.36634837906,0.25584736192514,5.6275681488936e-11,5638.9437027894,653.75191902561,-1.5367759148566e-11,5676.2021110319,5729.0624270142,-1.7008176000405,2.0730009505851e-12,653.81606828654,4.7928140406092e-11,5691.6327828011
1.074,519.81354819582,-1.2044672984685e-11,4451.7500595958,4482.6475857957,0.0001706686798002,4.4777309030769e-12,519.88854556186,4.0222920805709e-11,4452.3976999628,77.667580832124,7.1119795030375e-12,658.1018690554,0.25935185477104,5.6344825398284e-11,5636.8994674844,662.66841867716,-1.5354774309667e-11,5675.1775373379,5729.073337272,-1.7236026130322,-6.5832390537188e-12,662.73433553555,3.9101115032435e-11,5690.6122232278
1.075,526.80456162278,-1.2455049144822e-11,4450.9180468387,4482.646334149,0.0001727340474531,1.1948289688375e-11,526.88160338005,4.783349270062e-11,4451.5743207408,79.759901874276,7.1221626957597e-12,666.83088951571,0.26285634041029,5.6198395980214e-11,5634.8277994006,671.58331257405,-1.5877991629831e-11,5674.1389570923,5729.0842118717,-1.7463723159536,2.9399513422693e-12,671.65102086554,4.8803386679119e-11,5689.5776524013
1.076,533.79424377106,-1.1885490855401e-11,4450.0750554257,4482.6450825244,0.00017479234892903,8.5640244895657e-12,533.87335722312,4.4266628665586e-11,4450.7399580663,81.879635156923,7.243865284088e-12,675.55332361102,0.26636081883603,5.6303404213226e-11,5632.7287191024,680.49657871386,-1.5151968221772e-11,5673.0863728118,5729.0950508373,-1.7691266525714,-1.3735958984823e-12,680.56610226389,4.425636517414e-11,5688.5290727733
1.077,540.78257739975,-1.2707558963432e-11,4449.2210874862,4482.6438309209,0.00017684356390646,9.9043401518423e-12,540.86378984003,4.5811556479737e-11,4449.894614003,84.026759845108,7.3099488430688e-12,684.26908525744,0.26986529005429,5.6089722710179e-11,5630.6022474247,689.40819509814,-1.6200021359103e-11,5672.0197870475,5729.1058541916,-1.7918655667123,3.3470296846583e-13,689.47955772155,4.622601780524e-11,5687.4664868286
1.078,547.76954527136,-1.256188209009e-11,4448.3561451768,4482.6425793402,0.00017888763380824,4.4555436813989e-12,547.85288398331,4.0431892209258e-11,4449.0382906449,86.201254833533,7.4274719133374e-12,692.97808843698,0.2733697540617,5.6080385561069e-11,5628.4484054729,698.3181397324,-1.6014372120066e-11,5670.9392023854,5729.1166219611,-1.8145890022967,-6.6125792992297e-12,698.39136523373,3.9367906178901e-11,5686.3898970903
1.079,554.75513015184,-1.2252192749945e-11,4447.4802306811,4482.6413277807,0.0001809245565596,8.5413210792334e-12,554.84062240846,4.4464824292163e-11,4448.1709901096,88.403098746775,7.461199274519e-12,701.68024719838,0.27687421085248,5.6048183021823e-11,5626.2672146223,707.22639062621,-1.561962711949e-11,5669.8446214455,5729.1273541681,-1.8372969032034,-1.4023418927825e-12,707.3015027991,4.4509401372905e-11,5685.2993061118
1.08,561.73931481064,-1.2256120597576e-11,4446.5933462097,4482.6400762426,0.00018295431709703,1.3990730882846e-11,561.82698787455,4.9852063883221e-11,4447.2927145435,90.632269939503,7.5455348078676e-12,710.37547565802,0.28037866042933,5.6207901614341e-11,5624.0586965182,716.13292579328,-1.5624695114125e-11,5668.7360468829,5729.1380508374,-1.8599892133702,5.5447011999138e-12,716.20994842057,5.1377451880559e-11,5684.1947164832
1.081,568.72208202074,-1.2134100581956e-11,4445.6954940004,4482.6388247272,0.00018497685920238,7.2028093125315e-12,568.81196314412,4.2907268450049e-11,4446.4034661213,92.888746496686,7.7376496865605e-12,719.06368800071,0.28388310279139,5.6298537880195e-11,5621.8228730757,725.03772325143,-1.5469199705909e-11,5667.6134813868,5729.148711995,-1.8826658768281,-3.1087812445846e-12,725.11668010516,4.2523959722408e-11,5683.0761308308
1.082,575.70341455868,-1.1940051378168e-11,4444.7866763179,4482.6375732338,0.00018699217463336,1.2655960481001e-11,575.79553098299,4.8257373683018e-11,4445.5032470427,95.172506233805,7.7635435515207e-12,727.74479848055,0.28738753793478,5.6336439419741e-11,5619.5597664792,733.94076102275,-1.5221869771598e-11,5666.4769276813,5729.159337665,-1.9053268375812,3.8433378658428e-12,734.02167586374,4.934471830708e-11,5681.9435518127
1.083,582.68329520463,-1.1816989661101e-11,4443.8668954542,4482.6363217617,0.00018900024625168,1.1309477443086e-11,582.7776741604,4.6753101715612e-11,4444.5920595345,97.483526697082,7.9199096825015e-12,736.4187214218,0.29089196585936,5.64982346931e-11,5617.2693991826,742.84201713355,-1.5065044697837e-11,5665.3263885247,5729.1699278707,-1.9279720396837,2.1284024889767e-12,742.92491371123,4.7427115837037e-11,5680.7969821216
1.084,589.66170674242,-1.1871433957394e-11,4442.936153728,4482.6350703103,0.00019100104876202,4.5061995584614e-12,589.75837544917,3.9960311318601e-11,4443.6699058507,99.821785163692,7.9493601642683e-12,745.0853712197,0.29439638656404,5.6600442648741e-11,5614.9517939086,751.7414696145,-1.5134516903603e-11,5664.1618667101,5729.1804826367,-1.9506014272401,-6.5460555812719e-12,751.82637166682,3.8767287340383e-11,5679.6364244851
1.085,596.63863195958,-1.2487655007276e-11,4441.9944534852,4482.633818882,0.00019299453680333,8.5632928699397e-12,596.737617626,4.4274972793926e-11,4442.7367882753,102.187258642,8.0019138830236e-12,753.74466234133,0.29790080004585,5.6330520760081e-11,5612.6069736488,760.63909650063,-1.5920174900597e-11,5662.9833650648,5729.1910019905,-1.973214944424,-1.3747259624067e-12,760.72602775431,4.4268052548299e-11,5678.4618816686
1.086,603.6140536474,-1.2691778617652e-11,4441.0417970989,4482.632567475,0.00019498070457757,1.399498485849e-11,603.71538347076,4.982010344632e-11,4441.7927091151,104.57992387177,8.0552602890922e-12,762.39650932645,0.3014052063057,5.6192081369921e-11,5610.2349616635,769.53487583141,-1.6180471025529e-11,5661.7908864509,5729.201485955,-1.9958125353909,5.5496361629423e-12,769.62386000123,5.1337558986883e-11,5677.2733564673
1.087,610.58795460093,-1.2073563503134e-11,4440.078186969,4482.6313160895,0.00019695951664289,1.0862633492356e-12,610.69165576715,3.6721843014315e-11,4440.8376707062,106.99975732441,8.1037182173005e-12,771.04082678832,0.30490960533903,5.6447159229797e-11,5607.8357814813,778.4287856508,-1.5392374007328e-11,5660.5844337649,5729.2119345555,-2.0183941443765,-1.090614859707e-11,778.51984643969,3.4638897544563e-11,5676.0708517132
1.088,617.56031761907,-1.2616682872058e-11,4439.1036255224,4482.6300647255,0.00019893095921475,8.5594605405206e-12,617.66641730258,4.4303721173471e-11,4439.871675411,109.4467352032,8.1688993948132e-12,779.67752941458,0.30841399714881,5.6222240621753e-11,5605.4094568988,787.32080400729,-1.6084860006427e-11,5659.3640099377,5729.222347817,-2.0409597156276,-1.3791031034174e-12,787.41396510619,4.4305066234686e-11,5674.8543702722
1.089,624.53112550458,-1.201212697019e-11,4438.1181152132,4482.6288133841,0.00020089498570997,9.9338286077902e-12,624.63965086833,4.5547293584317e-11,4438.8947256209,111.92083344353,8.3304104716783e-12,788.30653196809,0.31191838172921,5.6443365172715e-11,5602.9560119806,796.21090895397,-1.5314173540393e-11,5658.1296179347,5729.2327257664,-2.0635091934762,3.7282980522302e-13,796.30619404188,4.589060425067e-11,5673.623915047
1.09,631.50036106415,-1.190613666685e-11,4437.1216585223,4482.627562064,0.00020285158169031,1.0624888230511e-11,631.61133925913,4.612049143201e-11,4437.9068237509,114.42202771312,8.4581059061999e-12,796.92774928773,0.31542275908132,5.6609722335135e-11,5600.475471059,805.09907854858,-1.5179105368468e-11,5656.881260756,5729.2430684272,-2.0860425222458,1.2549356085551e-12,805.19651129196,4.6621505050623e-11,5672.3794889709
1.091,638.46800710842,-1.2044863804267e-11,4436.1142579577,4482.6263107649,0.00020480074738316,5.1753096166202e-12,638.58146527371,4.0736882291927e-11,4436.9079722449,116.95029341231,8.505676929926e-12,805.54109628929,0.31892712920538,5.6712610519219e-11,5597.9678587337,813.98529085357,-1.5356021142165e-11,5655.6189414358,5729.2533758244,-2.1085596462853,-5.6926376590036e-12,814.08489490646,3.9758030526658e-11,5671.1210950133
1.092,645.43404645202,-1.2595768178469e-11,4435.0959160545,4482.6250594879,0.00020674242429664,1.7452254919004e-12,645.55001171482,3.7606132509242e-11,4435.8981735748,119.50560567421,8.5540751185945e-12,814.14648796628,0.32243149209453,5.6305685157756e-11,5595.4331998715,822.86952393614,-1.6058441035249e-11,5654.3426630432,5729.2636479852,-2.1310605100604,-1.0067371198838e-11,822.97132294017,3.5766696245346e-11,5669.84873618
1.093,652.39846191364,-1.2211984028176e-11,4434.0666353746,4482.6238082328,0.0002086765939282,9.2570452171759e-12,652.51696138892,4.481834239671e-11,4434.8774302381,122.08793936505,8.6802127172245e-12,822.74383939076,0.32593584775081,5.6570547074877e-11,5592.8715196061,831.75175586831,-1.5569204779575e-11,5653.0524286812,5729.2738849345,-2.1535450580225,-4.8846040059947e-13,831.85577345231,4.496177215263e-11,5668.5624155091
1.094,659.36123631603,-1.1655578412151e-11,4433.026418507,4482.622556999,0.00021060324439759,8.5854011616995e-12,659.48229710641,4.4062523161387e-11,4433.8457447592,124.69726908437,8.7373764907223e-12,831.33306571422,0.32944019617457,5.6608603438493e-11,5590.2828433381,840.63196472694,-1.4859898901654e-11,5651.7482414878,5729.2840866975,-2.1760132346556,-1.3448894775614e-12,840.73822450684,4.3998276159571e-11,5667.2621360735
1.095,666.3223524861,-1.1638530417191e-11,4431.9752680676,4482.6213057873,0.00021252233727864,7.2269615422269e-12,666.44600168185,4.2689682301297e-11,4432.8031196908,127.33356916527,8.9489802558313e-12,839.91408216839,0.33294453736043,5.6718281330262e-11,5587.6671967342,849.51012859385,-1.4838222664459e-11,5650.4301046352,5729.294253301,-2.1984649845195,-3.0773873033185e-12,849.61865417269,4.2248114078339e-11,5665.9479009816
1.096,673.28179325491,-1.1900969792977e-11,4430.9131866992,4482.6200545975,0.00021443383894848,7.8957662890539e-12,673.4080579337,4.3469536780902e-11,4431.7495576116,129.99681367469,8.9643103595542e-12,848.48680406605,0.33644887131291,5.6598663472976e-11,5585.0246057276,858.38622555581,-1.5172873374381e-11,5649.0980213298,5729.3043847704,-2.2209002522071,-2.2244422016177e-12,858.49704052342,4.3242494654483e-11,5664.6197133753
1.097,680.23954145771,-1.1682738110252e-11,4429.8401770719,4482.6188034284,0.00021633776100316,9.9545043432195e-12,680.36844868436,4.5336904044325e-11,4430.6850611259,132.68697641364,9.0775922748695e-12,857.05114680193,0.33995319802293,5.667806610328e-11,5582.3550965172,867.26023370461,-1.489469658722e-11,5647.7519948129,5729.3144811302,-2.2433189822913,4.0175328341885e-13,867.37336163734,4.5623393301122e-11,5663.2775764296
1.098,687.19557993405,-1.1588603340829e-11,4428.7562418823,4482.6175522812,0.00021823405660371,1.3353864021515e-11,687.32715676071,4.8760895603357e-11,4429.6096328682,135.40403091748,9.1902812942267e-12,865.60702585349,0.34345751749176,5.6629077512318e-11,5579.6586955676,876.13213113714,-1.4774741326218e-11,5646.3920283598,5729.324542408,-2.2657211194671,4.7354101976455e-12,876.24759559813,4.9988901039411e-11,5661.9214933572
1.099,694.14989152775,-1.2085572126397e-11,4427.6613838542,4482.6163011548,0.00022012270432015,1.1981692222586e-11,694.2841649934,4.7511694123252e-11,4428.5232754969,138.14795045617,9.1945226931255e-12,874.15435678178,0.34696182972236,5.6469170051782e-11,5576.9354296089,885.00189595543,-1.5408407189055e-11,5645.0181252805,5729.3345686285,-2.2881066084314,2.98509676179e-12,885.11972049399,4.8396364173142e-11,5660.5514674019
1.1,701.10245908696,-1.2003384397552e-11,4426.5556057383,4482.6150500517,0.00022200364534797,9.2431605988944e-12,701.23945621787,4.4948538055652e-11,4427.4259917014,140.91870803452,9.2457680780141e-12,882.69305523225,0.35046613470572,5.6513807305744e-11,5574.1853256362,893.86950626668,-1.530367672864e-11,5643.6302889192,5729.3445598211,-2.3104753939782,-5.0682440015659e-13,893.98971441887,4.512859335358e-11,5659.167501847
1.101,708.05326546423,-1.2390577279475e-11,4425.4389103124,4482.6137989689,0.00022387690924575,1.4671922205813e-11,708.19301327298,5.0508091524286e-11,4426.3177841923,143.71627639249,9.3614652976141e-12,891.22303693564,0.35397043244756,5.6102500683303e-11,5571.4084109095,902.73494018335,-1.5797392040329e-11,5642.2285226546,5729.3545160082,-2.3328274208186,6.4147792980251e-12,902.85755547082,5.2216909181974e-11,5657.7696000028
1.102,715.00229351652,-1.2008890409865e-11,4424.3113003808,4482.6125479081,0.00022574243809004,1.4024752930178e-11,715.14481900256,4.9530199494781e-11,4425.1986557121,146.54062800545,9.4030107322413e-12,899.74421770872,0.35747472294427,5.6420583482986e-11,5568.6047129535,911.5981758232,-1.531081858519e-11,5640.8128298997,5729.3644372184,-2.3551626338262,5.590115826834e-12,911.72322175386,5.0970268370559e-11,5656.3577652203
1.103,721.94952610527,-1.2180320987931e-11,4423.1727787751,4482.6112968689,0.00022760021877843,7.8789787194555e-12,722.09485625449,4.3634813969538e-11,4424.0686090281,149.39173508442,9.5865890096039e-12,908.25651345521,0.36097900619191,5.6044039851641e-11,5565.7742595571,920.45919130933,-1.5529444917506e-11,5639.3832141019,5729.3743234777,-2.3774809778548,-2.2475361415725e-12,920.58669137691,4.3453971107152e-11,5654.9320008821
1.104,728.8949460964,-1.1832252191923e-11,4422.0233483537,4482.6100458509,0.00022945022303134,7.219273573042e-12,729.04310788098,4.2750263398728e-11,4422.9276469342,152.26956957638,9.6884030203852e-12,916.75984016656,0.36448328219036,5.632910305732e-11,5562.9170787734,929.31796477025,-1.5085729540565e-11,5637.9396787431,5729.3841748119,-2.3997823978187,-3.0866854211498e-12,929.44794245405,4.2326321267327e-11,5653.492310405
1.105,735.83853636041,-1.1881465429575e-11,4420.8630120019,4482.608794855,0.00023129241856168,1.2654917478511e-11,735.98955673889,4.8254113812346e-11,4421.7757722529,155.17410316453,9.7267783291752e-12,925.25411392278,0.36798755093882,5.6356062394861e-11,5560.033198919,938.17447433994,-1.5148535204013e-11,5636.4822273394,5729.393991249,-2.422066838682,3.8434487797251e-12,938.306953105,4.9343715528491e-11,5652.0386972422
1.106,742.78027977239,-1.2827405804217e-11,4419.6917726319,4482.60754388,0.00023312679607557,1.3290673574716e-11,742.9341856892,4.9345781584151e-11,4420.6129878315,158.10530726858,9.7408519238954e-12,933.7392508933,0.37149181243529,5.582322516566e-11,5557.1226485743,947.02869815788,-1.6354645068772e-11,5635.0108634412,5729.4037728142,-2.4443342454174,4.6524188581504e-12,947.16370145442,5.0735699495819e-11,5650.5711648783
1.107,749.72015921203,-1.1963876937748e-11,4418.5096331828,4482.6062929274,0.00023495331163303,1.5386724988749e-11,749.87697759781,5.0875341049347e-11,4419.4392965467,161.06315304502,9.9423477263605e-12,942.21516733776,0.37499606667778,5.6562248157768e-11,5554.1854565828,955.88061436914,-1.5253726233511e-11,5633.5255906335,5729.4135195361,-2.4665845630889,7.3270575804557e-12,956.01816563292,5.2686007032815e-11,5649.089716836
1.108,756.65815756374,-1.1907240818343e-11,4417.3165966205,4482.605041995,0.00023677197592065,1.7681462847682e-12,756.81791533461,3.7407123080514e-11,4418.2547012987,164.04761138741,1.0102688732241e-11,950.68177960686,0.37850031366591,5.6386905995104e-11,5551.2216520508,964.73020112439,-1.5181575614698e-11,5632.0264125353,5729.4232314389,-2.4888177367262,-1.0038579125946e-11,964.87032377589,3.5514266657696e-11,5647.5943566674
1.109,763.59425771663,-1.2094795651119e-11,4416.1126659378,4482.6037910845,0.00023858273439714,7.2002209966851e-12,763.75698177463,4.292032961678e-11,4417.0592050182,167.0586529267,1.009501499321e-11,959.13900414317,0.38200455339782,5.6261282741984e-11,5548.2312643475,973.57743657999,-1.5420765359098e-11,5630.5133328003,5729.4329085516,-2.511033711491,-3.1111411190332e-12,973.72015402496,4.2543695562974e-11,5646.085087964
1.11,770.52844256456,-1.2141441498026e-11,4414.8978441545,4482.6025401958,0.00024038555065431,1.1282867218645e-11,770.69415979727,4.7001559003342e-11,4415.8528106612,170.09624803143,1.0190971981225e-11,967.58675748199,0.38550878587049,5.6234308442454e-11,5545.2143231043,982.42229889802,-1.5480301936155e-11,5628.9863551161,5729.4425509012,-2.533232432562,2.093733389788e-12,982.56763452703,4.7747377883087e-11,5644.5619143494
1.111,777.4606950062,-1.1763361118522e-11,4413.6721343172,4482.6012893292,0.00024218042111102,7.9026558517589e-12,777.62943228672,4.3407184856063e-11,4414.6355212109,173.16036680814,1.0277596211149e-11,976.0249562521,0.3890130110847,5.658549518707e-11,5542.1708582145,991.26476624636,-1.4998302079461e-11,5627.4454832049,5729.4521585153,-2.5554138451188,-2.2155684405167e-12,991.41274343474,4.3164653275307e-11,5643.024839482
1.112,784.39099794509,-1.218555031185e-11,4412.4355394993,4482.6000384822,0.000243967339145,1.1977826825001e-11,784.56278213136,4.7559491501287e-11,4413.4073396748,176.25097910157,1.0385908496072e-11,984.45351717667,0.3925172290365,5.6202365461208e-11,5539.1008998335,1000.1048167987,-1.5536657030357e-11,5625.8907208231,5729.461731418,-2.5775778943825,2.9791902451948e-12,1000.2554589058,4.8458997882125e-11,5641.473867051
1.113,791.31933428962,-1.2321097267454e-11,4411.188062801,4482.5987876585,0.00024574622946716,1.1945954642156e-11,791.49419222533,4.7837112417994e-11,4412.168269093,179.36805449501,1.0435940468994e-11,992.87235707404,0.39602143972685,5.5675092357557e-11,5536.0044783779,1008.9424287347,-1.5709532633079e-11,5624.3220717614,5729.4712696411,-2.5997245257162,2.9386189662195e-12,1009.0957591051,4.8813106117915e-11,5639.9090007878
1.114,798.24568695313,-1.2416690939321e-11,4409.9297073494,4482.5975368545,0.00024751712339821,5.1432857538919e-12,798.42364546641,4.1041523369915e-11,4410.9183125256,182.51156231059,1.0461948527548e-11,1001.2813928585,0.39952564315317,5.5623584297587e-11,5532.8816245257,1017.7775802398,-1.5831481958717e-11,5622.7395398448,5729.4807732075,-2.6218536843759,-5.7356756063415e-12,1017.9336222015,4.0148707492263e-11,5638.3302444486
1.115,805.17003885393,-1.2252326757334e-11,4408.6604762986,4482.5962860731,0.00024927995374924,1.1956909204067e-11,805.3511247583,4.7737263144179e-11,4409.657473066,185.68147160954,1.0606781024238e-11,1009.6805415412,0.40302983931417,5.5756489703018e-11,5529.7323692154,1026.6102495056,-1.56219776698e-11,5621.1431289324,5729.4902421487,-2.6439653157997,2.9529009445972e-12,1026.7690263713,4.8686064945194e-11,5636.7376018327
1.116,812.09237291535,-1.3021185692186e-11,4407.3803728292,4482.5950353126,0.00025103472250976,1.1244593038813e-11,812.27661300875,4.7343644738081e-11,4408.3857538296,188.87775119259,1.0620726845732e-11,1018.0697202309,0.4065340282075,5.5457093127778e-11,5526.5567436465,1035.4404147297,-1.6602354040163e-11,5619.5328429179,5729.4996764897,-2.6660593653706,2.0443011432975e-12,1035.6019497959,4.8184322417461e-11,5635.1310767672
1.117,819.01267206576,-1.1594391245706e-11,4406.0894001488,4482.5937845743,0.00025278137121632,7.911555633712e-12,819.20009313099,4.3318488444737e-11,4407.103157962,192.10036960019,1.0901703205533e-11,1026.4488461349,0.4100382098351,5.60771069337e-11,5523.3547792783,1044.2680541158,-1.4783211113589e-11,5617.9086857289,5729.5090762601,-2.6881357785992,-2.2038378066913e-12,1044.4323706629,4.305222649735e-11,5633.5106731178
1.118,825.93091923863,-1.1180393416632e-11,4404.7875614918,4482.5925338563,0.00025451992573267,1.1329467745902e-11,826.12154804268,4.6558303436542e-11,4405.809688632,195.34929511285,1.0947140438068e-11,1034.8178365595,0.41354238418826,5.6365971785877e-11,5520.1265078305,1053.0931458738,-1.4255400679342e-11,5616.2706613275,5729.5184414851,-2.7101945009248,2.1554698130533e-12,1053.2602671655,4.7183244507656e-11,5631.8763947802
1.119,832.84709737259,-1.1454240333997e-11,4403.4748601193,4482.5912831593,0.0002562503416641,1.0634177783145e-11,833.04096066689,4.6018432120487e-11,4404.5053490383,198.62449575146,1.1053907572264e-11,1043.1766089114,0.41704655127271,5.6007573578931e-11,5516.871961282,1061.9156682197,-1.460463260744e-11,5614.6187737098,5729.5277721934,-2.7322354779255,1.2684035679417e-12,1062.0856175036,4.6495008581074e-11,5630.2282456876
1.12,839.76118941143,-1.1122904680638e-11,4402.1512993194,4482.5900324854,0.00025797255602811,2.4981789640416e-12,839.958313932,3.7617870190382e-11,4403.1901424075,201.9259392776,1.1161898174402e-11,1051.525080698,0.42055071108379,5.6355617438289e-11,5513.5911718713,1070.735599376,-1.4182223104231e-11,5612.9530269064,5729.5370684157,-2.7542586552496,-9.1055745842644e-12,1070.9083998832,3.5783978211135e-11,5628.5662298093
1.121,846.67317830418,-1.1183713677365e-11,4400.8168824068,4482.5887818314,0.00025968659696218,1.1330508579988e-11,846.87359077056,4.6556387651303e-11,4401.8640719877,205.25359319387,1.1247399604557e-11,1059.8631695286,0.42405486361701,5.6285407758205e-11,5510.2841720958,1079.5529175712,-1.4259805142247e-11,5611.2734249818,5729.5463301758,-2.7762639784627,2.1562393797553e-12,1079.7285925156,4.7181187342454e-11,5626.8903511422
1.122,853.58304700514,-1.1141557294814e-11,4399.471612723,4482.5875311996,0.00026139240392808,1.4745378746142e-11,853.78677412124,4.9829340306728e-11,4400.5271410596,208.60742474419,1.1355296856887e-11,1068.1907931147,0.42755900887549,5.6140913966274e-11,5506.9509947115,1088.3676010404,-1.4206110246495e-11,5609.5799720348,5729.5555575049,-2.7982513932986,6.5111637869569e-12,1088.5461736196,5.1354528919287e-11,5625.2006137244
1.123,860.49077847389,-1.0685636403496e-11,4398.1154936362,4482.5862805884,0.00026308998548075,6.5957931390942e-12,860.69784692717,4.152258506647e-11,4399.1793529265,211.98740091413,1.141518563702e-11,1076.5078692715,0.43106314685627,5.6300280626767e-11,5503.5916727329,1097.1796280252,-1.3624843440974e-11,5607.8726721987,5729.5647504291,-2.8202208454391,-3.8781328409038e-12,1097.3611214191,4.0763015575832e-11,5623.497021623
1.124,867.39635567538,-1.1193305830826e-11,4396.7485285415,4482.585029998,0.00026477929802127,6.5784669378566e-12,867.60679213699,4.1699774275955e-11,4397.8207109204,215.39348843126,1.1539055897857e-11,1084.814315918,0.43456727755898,5.6182896009116e-11,5500.2062394323,1105.9889767734,-1.4272205813015e-11,5606.1515296405,5729.5739089768,-2.8421722806805,-3.9023799382892e-12,1106.173414145,4.0989041154293e-11,5621.779578942
1.125,874.29976157997,-1.1523617129972e-11,4395.3707208608,4482.5837794307,0.0002664602916127,7.9133253769181e-12,874.51359270504,4.329391142463e-11,4396.4512184022,218.82565376542,1.1611493884456e-11,1093.1100510785,0.43807140097768,5.5788156646391e-11,5496.7947283398,1114.7956255396,-1.4693431367452e-11,5604.4165485616,5729.5830331793,-2.8641056448756,-2.2009477573803e-12,1114.9830300351,4.3021797062337e-11,5620.048289822
1.126,881.20097916342,-1.0447386011858e-11,4393.9820740425,4482.5825288839,0.00026813298904926,7.9748191557372e-12,881.41823159005,4.2736050809289e-11,4395.0708787545,222.28386312914,1.1811442557526e-11,1101.3949928829,0.44157551711527,5.6475231392447e-11,5493.3571732431,1123.5995525848,-1.3321216525697e-11,5602.6677331977,5729.5921230618,-2.8860208838201,-2.1208948226131e-12,1123.7899473323,4.2310593180092e-11,5618.3031584317
1.127,888.09999140699,-1.1468214398958e-11,4392.5825915618,4482.5812783578,0.00026979734283827,7.9256401788741e-12,888.32069175659,4.3191013916408e-11,4393.6796953899,225.76808247788,1.1843172059364e-11,1109.6690595677,0.44507962596913,5.5941875264087e-11,5489.8936081864,1132.4007361768,-1.4622907051898e-11,5600.9050878183,5729.6011786531,-2.9079179434486,-2.1856782876639e-12,1132.5941442868,4.2890818501007e-11,5616.5441889775
1.128,894.99678129745,-1.099434258911e-11,4391.1722769208,4482.5800278534,0.00027145332646228,1.1345788458045e-11,895.22095617476,4.6397143505655e-11,4392.2776717479,229.27827751044,1.1894154606541e-11,1117.9321694766,0.44858372753888,5.6135834045415e-11,5486.4040674712,1141.1991545901,-1.4018736692323e-11,5599.1286167275,5729.6101999829,-2.9297967697163,2.1775008011982e-12,1141.3955991556,4.697905064098e-11,5614.7713857009
1.129,901.89133182714,-1.1053141041328e-11,4389.7511336482,4482.5787773702,0.0002731009309116,5.9083547516298e-12,902.11900781987,4.0931472187339e-11,4390.864811294,232.81441366923,1.2016259623611e-11,1126.1842410619,0.45208782181715,5.614977536747e-11,5482.8885856548,1149.9947861057,-1.4093771288914e-11,5597.338324263,5729.6191870796,-2.9516573085978,-4.756786761359e-12,1150.1942902019,4.000991205011e-11,5612.984752876
1.13,908.78362599398,-1.1009021819164e-11,4388.3191652993,4482.5775269081,0.00027474011463369,1.201956286237e-11,909.01482967267,4.7144372607166e-11,4389.4411175202,236.3764561407,1.204760022213e-11,1134.4251928844,0.45559190880874,5.601230894034e-11,5479.3471975509,1158.7876090118,-1.4037563646208e-11,5595.5342147971,5729.6281399715,-2.9734995061546,3.0360280262043e-12,1158.9901956954,4.793209665982e-11,5611.184294811
1.131,915.67364680156,-1.1478285336097e-11,4386.8763754562,4482.5762764672,0.00027637087157473,9.2836584773826e-12,915.90840471955,4.4580448273907e-11,4388.0065939456,239.96436985558,1.2245134539592e-11,1142.6549436151,0.45909598850867,5.5919389344711e-11,5475.7799382286,1167.5776016031,-1.4635976458566e-11,5593.7162927358,5729.6370586876,-2.9953233084491,-4.5469249025654e-13,1167.7832939131,4.4662936326753e-11,5609.370015849
1.132,922.56137725914,-1.1221061406441e-11,4385.4227677278,4482.5750260473,0.00027799315378729,8.6264858104035e-12,922.79971595236,4.3674939749841e-11,4386.5612441161,243.57811948933,1.2233664656389e-11,1150.8734120355,0.46260006091699,5.6141230986989e-11,5472.1868430126,1176.3647421814,-1.4308041730582e-11,5591.8845625196,5729.6459432569,-3.0171286616422,-1.290643373425e-12,1176.5735631383,4.3508440990617e-11,5607.5419203667
1.133,929.44680038171,-1.1273391942179e-11,4383.9583457493,4482.5737756495,0.00027960694055196,5.9174024187592e-12,929.68874636878,4.0837838536159e-11,4385.105071605,247.2176694624,1.2367424142082e-11,1159.0805170382,0.46610412603167,5.6102659844182e-11,5468.5679474823,1185.1490090555,-1.437482511496e-11,5590.0390286228,5729.6547937096,-3.0389155119076,-4.7442336517656e-12,1185.3609816614,3.989092628269e-11,5605.7000127764
1.134,936.32989919004,-1.0477816531074e-11,4382.4831131831,4482.5725252719,0.00028121224204369,1.1381824302492e-11,936.5754789716,4.6086590923741e-11,4383.6380800098,250.88298394063,1.250755445395e-11,1167.2761776285,0.46960818385122,5.6251613393329e-11,5464.9232874719,1193.930380541,-1.336042908251e-11,5588.1796955538,5729.6636100724,-3.0606838054194,2.2231077655838e-12,1194.1455277793,4.6583816882065e-11,5603.8442975209
1.135,943.2106567107,-1.0409279341261e-11,4380.9970737178,4482.5712749156,0.0002828090030107,7.9909243284881e-12,943.45989676982,4.2578415619665e-11,4382.1602729574,254.5740268356,1.2552235889151e-11,1175.4603129243,0.47311223437161,5.654785602445e-11,5461.2528990697,1202.7088349609,-1.3273090092303e-11,5586.3065678552,5729.6723923759,-3.082433488487,-2.0993237530298e-12,1202.9271797962,4.211058346644e-11,5601.9747790809
1.136,950.08905597612,-1.0584072680786e-11,4379.5002310689,4482.5700245807,0.00028439719395124,9.3355147830904e-12,950.34198277798,4.4099559073918e-11,4380.6716541004,258.29076180497,1.2654519738944e-11,1183.6328421575,0.47661627759259,5.6222819585713e-11,5457.5568186182,1211.484350645,-1.3496032416627e-11,5584.4196501034,5729.6811406495,-3.1041645074313,-3.8644695082857e-13,1211.7059160232,4.4050344318383e-11,5600.0914619697
1.137,956.96508002463,-1.0505408175321e-11,4377.9925889785,4482.5687742669,0.00028597680841358,1.4095781833423e-11,957.22172001634,4.8854495535849e-11,4379.1722271181,262.03315225286,1.2745286054848e-11,1191.7936846745,0.48012031351626,5.6139023551366e-11,5453.8350827131,1220.2569059305,-1.3395775808056e-11,5582.5189469093,5729.6898549224,-3.1258768085887,5.6849392814778e-12,1220.4817147784,5.0113657364473e-11,5598.1943507347
1.138,963.83871190049,-1.0347985489323e-11,4376.4741512152,4482.5675239742,0.00028754782010765,1.0708589614009e-11,964.09909151096,4.5329334686858e-11,4377.661995716,265.80116133019,1.2846672076822e-11,1199.9427599372,0.48362434213825,5.6328994203422e-11,5450.0877282036,1229.0264791618,-1.3195096057461e-11,5580.6044629173,5729.6985352237,-3.1475703383672,1.3659826308271e-12,1229.254554387,4.5618714968748e-11,5596.283449957
1.139,970.70993465394,-1.0542887743381e-11,4374.9449215744,4482.5662737027,0.00028911018583244,1.2052232259072e-11,970.9740802938,4.6853825073218e-11,4376.140963627,269.59475193506,1.2920985299498e-11,1208.0799875236,0.48712836345682,5.606865796301e-11,5446.3147921914,1237.7930486904,-1.3443671523228e-11,5578.6762028062,5729.7071815832,-3.1692450432437,3.0781354028175e-12,1238.0244131813,4.7562777501231e-11,5594.3587642524
1.14,977.57873134123,-1.0484779711106e-11,4373.404903878,4482.5650234523,0.00029066389677723,9.3370380871427e-12,977.84666940271,4.4091037895364e-11,4374.6091346103,273.4138867131,1.3046114102216e-11,1216.2052871286,0.49063237746719,5.6132190041913e-11,5442.516312031,1246.5565928755,-1.3369624851656e-11,5576.7341712886,5729.7157940306,-3.1909008696968,-3.8486206409283e-13,1246.7912695008,4.4039929255474e-11,5592.4202982705
1.141,984.44508502471,-1.0762028421207e-11,4371.8541019745,4482.5637732227,0.0002922089489914,7.2826709940355e-12,984.7168418814,4.2137785231586e-11,4373.0665124514,277.25852805786,1.3090217332399e-11,1224.3185785651,0.49413638417286,5.6109935924961e-11,5438.6923253288,1255.3170900833,-1.3723216139849e-11,5574.7783731112,5729.724372595,-3.2125377642455,-3.0020085809573e-12,1255.5551016923,4.1549364426449e-11,5590.4680566946
1.142,991.30897877279,-1.0207879680424e-11,4370.2925197392,4482.562523015,0.00029374527602499,1.0709545663484e-11,991.58458077976,4.5326715904931e-11,4371.5131009638,281.12863811116,1.3238525835464e-11,1232.4197817644,0.49764038356833,5.6180150809215e-11,5434.8428699429,1264.0745186878,-1.3016642451402e-11,5572.8088130547,5729.7329173075,-3.2341556735377,1.3668061907973e-12,1264.3158881101,4.5615860481268e-11,5588.5020442434
1.143,998.17039566005,-1.0662063246181e-11,4368.7201610736,4482.5612728273,0.00029527289112252,7.9577516451379e-12,998.44986915322,4.289768193444e-11,4369.9489039849,285.02417876348,1.3254529852152e-11,1240.5088167771,0.50114437565495,5.5802667608268e-11,5430.9679839828,1272.8288570702,-1.3595848405434e-11,5570.8254959336,5729.7414281957,-3.2557545441604,-2.143811603933e-12,1273.0736071152,4.251855595036e-11,5586.5222656664
1.144,1005.0293187673,-9.9370347020344e-12,4367.1370299061,4482.5600226606,0.00029679176697073,1.0724170249748e-11,1005.3126900638,4.5186969183791e-11,4368.3739253814,288.94511165433,1.3423308146444e-11,1248.5856037742,0.50464836042864,5.6130677146202e-11,5427.0677058091,1281.5800836194,-1.2671363958106e-11,5568.8284265966,5729.749905291,-3.2773343228058,1.3864066145119e-12,1281.8282370768,4.5437909294496e-11,5584.5287257507
1.145,1011.8857311814,-1.0550736499748e-11,4365.5431301915,4482.5587725161,0.00029830183834179,1.3408372719417e-11,1012.1730265796,4.8262603332197e-11,4366.7881690467,292.89139817263,1.345535548215e-11,1256.6500630473,0.50815233788935,5.5713415868588e-11,5423.1420740327,1290.328176732,-1.3453991393186e-11,5566.8176099262,5729.7583486247,-3.2988949562612,4.806447774508e-12,1290.5797563715,4.9359990053621e-11,5582.5214293173
1.146,1018.7396159958,-1.0647131613861e-11,4363.9384659112,4482.5575223923,0.00029980310426936,7.285388655201e-12,1019.0308617743,4.2146634706558e-11,4365.1916388982,296.86299945709,1.3547245682026e-11,1264.70211501,0.51165630803682,5.5661277670316e-11,5419.191127515,1299.073114812,-1.3576967675122e-11,5564.7930508388,5729.766758225,-3.3204363912741,-3.0012663361501e-12,1299.3281433826,4.1561161196607e-11,5580.5003812178
1.147,1025.5909563099,-1.017489478089e-11,4362.3230410733,4482.5562722893,0.00030129556498082,8.6730668220208e-12,1025.8861787283,4.3226964108883e-11,4363.5843388817,300.85987639658,1.3609422670844e-11,1272.7416801983,0.51516027086588,5.5870712570294e-11,5415.214905367,1307.8148762714,-1.2974831278822e-11,5562.754754285,5729.7751341224,-3.3419585746408,-1.228328636721e-12,1308.0733765018,4.2938907204165e-11,5578.4655863401
1.148,1032.4397352298,-1.0223285759614e-11,4360.6968597121,4482.5550222062,0.00030277921123911,3.8993680246541e-12,1032.7389605278,3.8599248797233e-11,4361.9662729684,304.88198963055,1.3731325646839e-11,1280.7686792713,0.51866422637684,5.5689648422244e-11,5411.2134469493,1316.5534395297,-1.3036589169291e-11,5560.7027252489,5729.783476346,-3.3634614532161,-7.3173678487998e-12,1316.8154341279,3.7037796874612e-11,5576.4170496048
1.149,1039.2859358677,-1.0980461331855e-11,4359.0599258886,4482.5537721454,0.00030425393620703,4.5377438785688e-12,1039.589190266,3.9672925101347e-11,4360.3374451592,308.92929954939,1.3755633080075e-11,1288.7830330126,0.52216817456605,5.519707846173e-11,5407.1867918715,1325.2887830146,-1.4002184828277e-11,5558.6369687488,5729.7917849292,-3.3849449740324,-6.5053897598671e-12,1325.5542946681,3.8407036231924e-11,5574.3547759702
1.15,1046.1295413424,-1.0823343089827e-11,4357.4122436905,4482.552522105,0.00030571980684613,2.0196462774749e-11,1046.4368510416,5.5166440643059e-11,4358.6978594773,313.00176629483,1.3703709987514e-11,1296.7846623301,0.52567211543457,5.5239913338001e-11,5403.1349799918,1334.0208851612,-1.38018832474e-11,5556.5574898368,5729.8000599,-3.4064090839396,1.3464362871168e-11,1334.2899365365,5.8164477791459e-11,5572.2787704233
1.151,1052.9705347792,-1.0360537948395e-11,4355.7538172316,4482.5512720864,0.00030717671702973,1.2722507509305e-11,1053.2819259601,4.7614306594723e-11,4357.047519976,317.09934976032,1.3953654258523e-11,1304.7734882579,0.52917604897787,5.5249427428905e-11,5399.0580514167,1342.7497244128,-1.3211763280618e-11,5554.4642935989,5729.8083012907,-3.4278537300641,3.9334729050322e-12,1343.0223381556,4.8534110107593e-11,5570.1890379893
1.152,1059.8088993098,-1.0577479864216e-11,4354.0846506526,4482.5500220877,0.00030862472954141,1.5434694754929e-11,1060.124398133,5.0404935217005e-11,4355.3864307316,321.22200959147,1.3969461004626e-11,1312.7494319561,0.53267997519775,5.5282525085465e-11,5394.9560465006,1351.4752792208,-1.3488467287548e-11,5552.3573851549,5729.8165091297,-3.4492788593568,7.3926164669003e-12,1351.7514779552,5.2092881657612e-11,5568.0855837232
1.153,1066.6446180726,-1.0651849194354e-11,4352.4047481204,4482.5487721101,0.00031006375462539,8.6346580926988e-12,1066.9642506787,4.3581931900155e-11,4353.7145958503,325.36970518639,1.4062312132888e-11,1320.7124147122,0.53618389409008,5.5352267040731e-11,5390.8290058454,1360.1975280443,-1.3583361865854e-11,5550.2367696585,5729.8246834491,-3.4706844190192,-1.2784903344332e-12,1360.4773343734,4.3392227311312e-11,5565.9684127175
1.154,1073.4776742125,-1.0595260779844e-11,4350.7141138285,4482.5475221542,0.00031149376650319,5.9140448614714e-12,1073.801466722,4.0871401965972e-11,4352.0320194636,329.54239569614,1.4181325167992e-11,1328.6623579415,0.53968780565356,5.5127982474118e-11,5386.6769703,1368.9164493507,-1.3511247676234e-11,5548.1024522972,5729.8328242803,-3.4920703562162,-4.7489091652142e-12,1369.1998858563,3.9935815071557e-11,5563.8375300979
1.155,1080.3080508811,-1.0561908986295e-11,4349.0127519969,4482.5462722187,0.00031291479467654,9.9952032327905e-12,1080.6360293939,4.4940754893516e-11,4350.3387057283,333.74004002508,1.4235190934006e-11,1336.5991831882,0.54319170988718,5.5142813926157e-11,5382.49998096,1377.6320216156,-1.3468778176096e-11,5545.9544382925,5729.8409316528,-3.5134366180891,4.568413789624e-13,1377.9191108577,4.5125268105517e-11,5561.692941022
1.156,1087.1357312367,-1.0980135203842e-11,4347.3006668718,4482.5450223038,0.00031432678190413,5.8958658268049e-12,1087.467921832,4.1043375946168e-11,4348.6346588288,337.96259683133,1.4296259271893e-11,1344.522812126,0.54669560678731,5.5121789077628e-11,5378.2980791673,1386.3442233225,-1.4002151868531e-11,5543.7927328994,5729.8490055976,-3.5347831519395,-4.7728522523105e-12,1386.6349878394,4.0155324594962e-11,5559.5346506825
1.157,1093.9606984442,-1.0862479318807e-11,4345.5778627262,4482.5437724102,0.00031572970215166,1.3373033800126e-11,1094.297127181,4.8568123481307e-11,4346.9198829766,342.21002452718,1.4436096090233e-11,1352.4331665588,0.55019949635628,5.4865260338405e-11,5374.0713065096,1395.0530329636,-1.3852174615692e-11,5541.617341407,5729.8570461467,-3.5561099050799,4.7620531649917e-12,1395.3474952719,4.9751250862096e-11,5557.362664307
1.158,1100.7829356754,-1.0933024451043e-11,4343.8443438593,4482.5425225371,0.00031712355973923,1.3364969070687e-11,1101.1236285915,4.8622488414002e-11,4345.1943824081,346.48228127942,1.4472810103139e-11,1360.3301684216,0.55370337858809,5.4739869321391e-11,5369.8197048201,1403.7584290389,-1.3942182477966e-11,5539.428269138,5729.8650533303,-3.5774168248292,4.7531843912207e-12,1404.056611633,4.9820720248936e-11,5555.176987155
1.159,1107.602426109,-1.0892821367126e-11,4342.1001145968,4482.5412726857,0.00031850827394919,8.6100308740317e-12,1107.9474092215,4.3810926024165e-11,4343.4581613882,350.77932500984,1.4547189299517e-11,1368.2137397813,0.55720725348091,5.4911184540346e-11,5365.5433161768,1412.4603900571,-1.3890966502061e-11,5537.225521449,5729.873027181,-3.5987038586691,-1.3107676836294e-12,1412.7623154097,4.3684930889701e-11,5552.9776245222
1.16,1114.4191529303,-1.131854245745e-11,4340.3451792908,4482.5400228543,0.0003198838796834,1.1315012728857e-11,1114.7684522351,4.6687191005562e-11,4341.7112242055,355.10111339563,1.4617305955054e-11,1376.0838028372,0.5607111210368,5.445976135332e-11,5361.2421829027,1421.1588945352,-1.4433919337531e-11,5535.0091037302,5729.8809677279,-3.619970953975,2.1373725272306e-12,1421.4645850961,4.7352997174441e-11,5550.7645817345
1.161,1121.2330993316,-1.1008986257333e-11,4338.5795423196,4482.5387730441,0.00032125031225405,1.4057901110559e-11,1121.5867408037,4.9184701667385e-11,4339.9535751777,359.44760386977,1.4690940412961e-11,1383.9402799223,0.56421498125111,5.4819212103735e-11,5356.9163475648,1429.8539209987,-1.4039212500871e-11,5532.7790214057,5729.8888750041,-3.6412180583061,5.6377767038152e-12,1430.1633991957,5.0538096277308e-11,5548.5378641554
1.162,1128.0442485124,-1.0924238943999e-11,4336.8032080883,4482.5375232546,0.00032260759854807,3.1657519487804e-12,1128.402258105,3.8417746197825e-11,4338.1852186473,363.81875362144,1.486454839425e-11,1391.7830935034,0.56771883412397,5.4822569661023e-11,5352.5658529738,1438.5454479815,-1.3931191270022e-11,5530.5352799333,5729.8967490402,-3.6624451191503,-8.2552226773197e-12,1438.8587362197,3.6807553316018e-11,5546.2974771797
1.163,1134.8525836787,-1.0740134476217e-11,4335.0161810281,4482.5362734858,0.00032395565688148,1.201265584401e-11,1135.2149873239,4.7195461297736e-11,4336.4061589837,368.21451959649,1.4949990355916e-11,1399.6121661824,0.57122267965127,5.4908967997425e-11,5348.1907421838,1447.2334540261,-1.3696460632318e-11,5528.2778848045,5729.9045898678,-3.6836520841839,3.0285711005024e-12,1447.550574688,4.8001568215064e-11,5544.0434262369
1.164,1141.6580880439,-1.1056633039686e-11,4333.2184655965,4482.535023738,0.00032529449430285,1.1331083207139e-11,1142.0249116522,4.6524877049883e-11,4334.6164005831,372.63485849784,1.5055214019899e-11,1407.4274206968,0.57472651783398,5.4925655169902e-11,5343.7910584919,1455.9179176838,-1.4100139458795e-11,5526.0068415444,5729.9123975188,-3.7048389010208,2.1596316315126e-12,1456.238893129,4.7146521929553e-11,5541.7757167906
1.165,1148.4607448283,-1.0855687876399e-11,4331.4100662775,4482.5337740105,0.00032662409927298,1.1326989259736e-11,1148.8320142883,4.6555660802167e-11,4332.8159478671,377.07972678591,1.5026914391633e-11,1415.2287799206,0.57823034867014,5.4765377996424e-11,5339.3668454378,1464.5988175143,-1.3843939883351e-11,5523.7221557121,5729.9201720242,-3.7260055173458,2.1549719474157e-12,1464.9236700793,4.7185909693437e-11,5539.4943543367
1.166,1155.2605372593,-1.1388359005826e-11,4329.5909875815,4482.5325243046,0.00032794441057149,1.5407074487744e-11,1155.6362784381,5.0656840484484e-11,4331.0048052855,381.54908067904,1.5149031334927e-11,1423.0161668648,0.58173417215432,5.4785938372742e-11,5334.9181468029,1473.2761320861,-1.4523287086843e-11,5521.4238329,5729.9279134173,-3.7471518809614,7.3572150975643e-12,1473.6048840847,5.2416179036063e-11,5537.1993444076
1.167,1162.0574485715,-1.0779859643817e-11,4327.761234045,4482.5312746182,0.00032925544724094,1.2684231269489e-11,1162.4376873137,4.7960788552431e-11,4329.1829773115,386.04287615392,1.5302113309107e-11,1430.7895046785,0.58523798828807,5.4687973767564e-11,5330.4450066107,1481.9498399767,-1.3747333132974e-11,5519.1118787345,5729.9356217274,-3.7682779396112,3.8843368625752e-12,1482.2825136988,4.8978081573087e-11,5534.890692565
1.168,1168.8514620067,-1.0930310476165e-11,4325.9208102311,4482.530024954,0.00033055713993235,4.5260488065746e-12,1169.2362241355,3.9766892903637e-11,4327.3504684488,390.56106894606,1.5327655269147e-11,1438.5487166496,0.58874179706812,5.4712252957334e-11,5325.9474691255,1490.6199197721,-1.3939261203633e-11,5516.7862988754,5729.9432969898,-3.78938364121,-6.5196372606158e-12,1490.956537485,3.8528623000356e-11,5532.5684044102
1.169,1175.6425608138,-1.1245576518604e-11,4324.069720729,4482.5287753094,0.00033184949023735,4.5213245040282e-12,1176.0318721296,3.980208350407e-11,4325.5072832227,395.10361455019,1.5430332467488e-11,1446.2937262053,0.59224559849674,5.4666760701538e-11,5321.4255788526,1499.2863500674,-1.4341364901194e-11,5514.4470990163,5729.9509392332,-3.8104689336232,-6.5252367311558e-12,1499.6269340142,3.8573607632694e-11,5530.2324855717
1.17,1182.4307282491,-1.1269651878365e-11,4322.2079701542,4482.5275256859,0.00033313250031597,1.472735149978e-11,1182.8246145302,4.9994346770083e-11,4323.6534261887,399.67046822071,1.5482358017155e-11,1454.0244569129,0.59574939256459,5.4423996559416e-11,5316.8793805376,1507.9491094665,-1.4372133691487e-11,5512.0942848844,5729.9585484917,-3.8315337647727,6.4887550627751e-12,1508.293681867,5.157188651822e-11,5527.8829417169
1.171,1189.2159475761,-1.1436112473673e-11,4320.3355631487,4482.5262760832,0.00033440609649915,4.5129722441722e-12,1189.6144345784,3.988082520473e-11,4321.788901927,404.26158497212,1.5506266843462e-11,1461.740832481,0.59925317927588,5.4519211194204e-11,5312.308919166,1516.6081765825,-1.4584477722734e-11,5509.7278622404,5729.966124797,-3.8525780827253,-6.5357385302389e-12,1516.9567596324,3.8674218341694e-11,5525.5197785443
1.172,1195.9982020658,-1.0388975270337e-11,4318.4525043804,4482.5250265016,0.00033567028066273,1.0693113278518e-11,1196.4013155225,4.5476245815954e-11,4319.9137150445,408.87691957951,1.575832628449e-11,1469.4427767597,0.60275695862723,5.4990775821828e-11,5307.7142399627,1525.2635300372,-1.3249106672886e-11,5507.3478368788,5729.9736681819,-3.8736018355032,1.3461501878476e-12,1525.6161459088,4.5810205021729e-11,5523.1430017872
1.173,1202.7774749965,-1.0726061532018e-11,4316.5587985439,4482.5237769397,0.00033692503251359,5.2198213199711e-12,1203.1852406177,4.0315665736368e-11,4318.0278701729,413.51642657895,1.5838347235293e-11,1477.1302137417,0.60626073061564,5.4632712850194e-11,5303.0953883915,1533.9151484619,-1.3679050947513e-11,5504.9542146274,5729.9811786768,-3.8946049712023,-5.6342905601497e-12,1534.2718193026,3.9228966212598e-11,5520.7526172101
1.174,1209.5537496539,-1.1253822526647e-11,4314.6544503598,4482.5225273991,0.00033817033266814,9.2758376934315e-12,1209.9661931273,4.4623392220916e-11,4316.131371973,418.18006026796,1.5819866900843e-11,1484.8030675628,0.60976449524066,5.4410156068163e-11,5298.452410155,1542.5630104967,-1.4352167024279e-11,5502.5470013479,5729.9886563163,-3.9155874379767,-4.6211211940372e-13,1542.9237584303,4.4722797513941e-11,5518.3486306149
1.175,1216.3270093311,-1.1531310628587e-11,4312.7394645749,4482.5212778788,0.00033940615873007,1.1990903062142e-11,1216.7441563214,4.7404996811676e-11,4314.2242251295,422.86777470598,1.5891174769307e-11,1492.4612625028,0.61326825250228,5.4274531483683e-11,5293.7853511936,1551.207094791,-1.4706107859253e-11,5500.1262029353,5729.9961011315,-3.936549184029,2.9996896893508e-12,1551.5719419168,4.8270361232422e-11,5515.9310478339
1.176,1223.097237329,-1.1766899954413e-11,4310.8138459623,4482.520028379,0.00034063246448568,1.3339797148848e-11,1223.5191134774,4.885573369473e-11,4312.3064343545,427.5795237148,1.591488659608e-11,1500.1047229863,0.61677200239435,5.4015561554849e-11,5289.0942576856,1559.8473800036,-1.5006614006996e-11,5497.6918253183,5730.0035131554,-3.9574901576453,4.7207114519526e-12,1560.2163483962,5.012066261155e-11,5513.4998747347
1.177,1229.8644169558,-1.1162407803633e-11,4308.8775993213,4482.5187789006,0.00034184922049008,4.5274979511983e-12,1230.2910478806,3.9734447936784e-11,4310.3780043868,432.31526087902,1.6069338568125e-11,1507.7333735833,0.62027574491757,5.4448129598733e-11,5284.3791760463,1568.4838448025,-1.4235747997082e-11,5495.243874459,5730.0108924217,-3.9784103071439,-6.5159808972093e-12,1568.8569565122,3.8488114821947e-11,5511.0551172188
1.178,1236.6285315274,-1.1440229839843e-11,4306.9307294776,4482.5175294424,0.00034305644862798,3.8269545952346e-12,1237.0599428233,3.9248913797849e-11,4308.4389399898,437.07493954652,1.6200308564258e-11,1515.3471390102,0.62377948007118,5.4257721145839e-11,5279.6401529278,1577.116467865,-1.4590119043478e-11,5492.7823563531,5730.0182389618,-3.9993095808241,-7.4107651439059e-12,1577.493744917,3.7868993097573e-11,5508.5967812194
1.179,1243.3895643673,-1.1499431615269e-11,4304.9732412827,4482.5162800048,0.00034425411047323,1.1315803979603e-11,1243.8257816056,4.6674035296401e-11,4306.4892459545,441.85851282889,1.6204465829069e-11,1522.94594413,0.62728320785118,5.4171109872131e-11,5274.8772352186,1585.7452278778,-1.4665676659198e-11,5490.3072770297,5730.025552809,-4.0201879271177,2.1389738938393e-12,1586.1266922725,4.7338672044817e-11,5506.1248727046
1.18,1250.1474988066,-1.0826643401241e-11,4303.0051396145,4482.5150305879,0.00034544215264987,6.5872255566868e-12,1250.588547535,4.1592008049457e-11,4304.5289270977,446.66593360195,1.6341660880395e-11,1530.5297139537,0.6307869282567,5.4543728474771e-11,5270.0904700427,1594.3701035372,-1.3807692836321e-11,5487.8186425515,5730.0328339961,-4.0410452945255,-3.8876141889022e-12,1594.75577725,4.0857452837662e-11,5503.6393976758
1.181,1256.9023181844,-1.12574324862e-11,4301.0264293773,4482.5137811909,0.00034662059340462,5.2089461216598e-12,1257.3482239264,4.041678623723e-11,4302.5579882618,451.49715450616,1.6406545935189e-11,1538.0983736406,0.63429064128492,5.4340252783613e-11,5265.2799047598,1602.9910735489,-1.4357154354272e-11,5485.3164590147,5730.0400825555,-4.0618816315078,-5.647772831005e-12,1603.3809785297,3.9358728949612e-11,5501.1403621671
1.182,1263.6540058473,-1.0716831935764e-11,4299.037115501,4482.5125318152,0.0003477893545778,2.2229170977897e-11,1264.1047941031,5.7234237314796e-11,4300.5764343174,456.3521279471,1.6452268909208e-11,1545.6518484993,0.63779434693801,5.4463341388894e-11,5260.4455869641,1611.6081166282,-1.3667747489343e-11,5482.8007325487,5730.0472985218,-4.0826968867036,1.6061349299157e-11,1612.0022748021,6.0807129080229e-11,5498.6277722486
1.183,1270.4025451497,-1.0427187759066e-11,4297.0372029422,4482.5112824592,0.00034894849056855,6.6141103011175e-12,1270.858241395,4.1370994520798e-11,4298.5842701583,461.23080609597,1.6635788558338e-11,1553.1900639882,0.64129804520883,5.4750302382056e-11,5255.5875644844,1620.2212115001,-1.3298402309903e-11,5480.2714693166,5730.0544819261,-4.1034910086295,-3.8546726574551e-12,1620.6196447661,4.0575874908286e-11,5496.1016340201
1.184,1277.1479194541,-1.0807322918527e-11,4295.0266966832,4482.5100331238,0.0003500979211708,1.1581989707576e-12,1277.6085491405,3.6061800030504e-11,4296.5815007071,466.13314089002,1.6733971955514e-11,1560.7129457162,0.64480173609726,5.4568222336571e-11,5250.7058853836,1628.8303368991,-1.3783269664502e-11,5477.7286755148,5730.0616328029,-4.1242639460304,-1.0812992211687e-11,1629.233067131,3.3804803574455e-11,5493.5619536181
1.185,1283.8901121305,-1.0970181360537e-11,4293.0056017328,4482.5087838096,0.00035123762592093,1.0665990226449e-11,1284.3557006857,4.5685163985176e-11,4294.5681309122,471.05908403305,1.6830550950316e-11,1568.220419444,0.64830541960216,5.4334027294739e-11,5245.8005979578,1637.4354715695,-1.3991018413262e-11,5475.1723573732,5730.0687511863,-4.1450156476269,1.3137180145811e-12,1637.8425206155,4.6078285501419e-11,5491.0087372122
1.186,1290.6291065572,-1.090731151232e-11,4290.9739231255,4482.507534516,0.00035236759549662,1.8836240510064e-11,1291.0996793843,5.3757728737253e-11,4292.5441657468,476.0085869959,1.6816919167981e-11,1575.7124110841,0.65180909572243,5.4338665945314e-11,5240.871750736,1646.0365942656,-1.3910901944247e-11,5472.6025211549,5730.0758371089,-4.165746062175,1.1734840529853e-11,1646.4479839478,5.637398859358e-11,5488.4419910038
1.187,1297.3648861202,-1.0639791131473e-11,4288.9316659222,4482.5062852421,0.00035348781773337,1.2723270570794e-11,1297.8404685974,4.7582169541288e-11,4290.5096102102,480.98160101687,1.6994983220199e-11,1583.1888467019,0.65531276445312,5.4454996067932e-11,5235.91939248,1654.6336837511,-1.356977030742e-11,5470.0191731566,5730.0828906031,-4.1864551384874,3.9370486037971e-12,1655.0494358653,4.8497922258001e-11,5485.8617212276
1.188,1304.0974342136,-1.0452643091352e-11,4286.8788352099,4482.5050359892,0.000354598253125,1.2052207972943e-11,1304.5780516949,4.6829365472206e-11,4288.4644693299,485.97807710229,1.7020748742727e-11,1590.6496525163,0.65881642579567,5.4522871460738e-11,5230.9435721835,1663.2267187998,-1.3331131337724e-11,5467.4223197082,5730.089911704,-4.2071428254671,3.0817496991797e-12,1663.6468551162,4.7537934526332e-11,5483.2679341543
1.189,1310.8267342396,-1.1334884419956e-11,4284.8154361013,4482.5037867567,0.00035569887165821,1.2696544553562e-11,1311.312412054,4.781692359776e-11,4286.4087481575,490.99796602692,1.7071824748131e-11,1598.0947549008,0.66232007974785,5.4199577118053e-11,5225.9443390716,1671.8156781957,-1.4456387475992e-11,5464.8119671731,5730.0969004445,-4.2278090720549,3.9034435406204e-12,1672.2402204576,4.8797590100624e-11,5480.6606360855
1.19,1317.5527696085,-1.0746343051538e-11,4282.7414737356,4482.5025375446,0.0003567896708887,1.54455697364e-11,1318.04353306,5.0292351229733e-11,4284.3424517716,496.04121833449,1.7185521126832e-11,1605.5240803837,0.66582372630618,5.4347722502901e-11,5220.9217426006,1680.4005407323,-1.370580905713e-11,5462.1881219478,5730.1038568583,-4.2484538272102,7.4091011104116e-12,1680.829510657,5.1954872262033e-11,5478.0398333571
1.191,1324.2755237386,-1.1653457712701e-11,4280.6569532778,4482.5012883519,0.00035787063228554,2.477452704791e-12,1324.771398106,3.7787885667773e-11,4282.2655852757,501.10778433816,1.7185949603531e-11,1612.937555649,0.66932736547109,5.4028521240257e-11,5215.8758324573,1688.9812852134,-1.4862793287773e-11,5459.5507904624,5730.1107809782,-4.2690770399656,-9.1312916429553e-12,1689.4147044912,3.6006773083963e-11,5475.4055323373
1.192,1330.9949800565,-1.0787723145333e-11,4278.5618799189,4482.5000391809,0.0003589416946852,8.6318057736234e-12,1331.4959905939,4.3600075806671e-11,4280.1781538026,506.19761412102,1.7344451504371e-11,1620.3351075373,0.67283099723811,5.4399147079304e-11,5210.8066585587,1697.557890453,-1.3758695571742e-11,5456.89997918,5730.1176728407,-4.2896786594653,-1.2807107804824e-12,1697.9957807482,4.3419788597898e-11,5472.7577394314
1.193,1337.711121997,-1.1259269558361e-11,4276.4562588761,4482.4987900301,0.00036000286621629,9.974657167941e-12,1338.2172939328,4.513364877147e-11,4278.0801625075,511.31065753659,1.7507591188425e-11,1627.7166630464,0.67633462160623,5.404735730144e-11,5205.714271051,1706.1303352749,-1.436016756895e-11,5454.2356945972,5730.124532478,-4.3102586348123,4.2947980241625e-13,1706.5727182245,4.5375835033834e-11,5470.0964610734
1.194,1344.4239330029,-1.1227529322921e-11,4274.3400953924,4482.4975408991,0.00036105413624909,7.936286610527e-12,1344.9352915402,4.3073979712899e-11,4275.9716165728,516.4468642093,1.7510638880731e-11,1635.0821493319,0.67983823857367,5.4088493232907e-11,5200.59872031,1714.6985985135,-1.4319736368895e-11,5451.5579432438,5730.1313599237,-4.3308169151889,-2.1694495158653e-12,1715.1454957273,4.2749019168314e-11,5467.4217037323
1.195,1351.1333965258,-1.1099917859858e-11,4272.2133947369,4482.4962917887,0.00036209543509358,8.6218510629565e-12,1351.649966842,4.3682392989255e-11,4273.852521208,521.60618353502,1.7582480827186e-11,1642.4314937084,0.68334184814123,5.4122881523733e-11,5195.4600569397,1723.2626590132,-1.4157026245742e-11,5448.8667316829,5730.1381552129,-4.3513534499086,-1.2933881396449e-12,1723.7140920741,4.3525123609445e-11,5464.7334739115
1.196,1357.8394960251,-1.1006216771303e-11,4270.0761622048,4482.4950426988,0.00036312677843853,1.6135236376169e-11,1358.3613032722,5.0902439381606e-11,4271.7228816477,526.78856468149,1.776965055135e-11,1649.7646236493,0.68684545030218,5.4331524088763e-11,5190.2983317723,1731.8224956287,-1.4037573187187e-11,5446.1620665107,5730.1449183795,-4.3718681882276,8.2876080130523e-12,1732.2784860925,5.2733881063943e-11,5462.0317781466
1.197,1364.542214969,-1.1336537611428e-11,4267.9284031169,4482.4937936291,0.00036414814439922,1.1324329494966e-11,1365.0692842728,4.6577219078164e-11,4269.5827031524,531.99395658892,1.7768964142954e-11,1657.0814667886,0.69034904505808,5.3869243267501e-11,5185.1135958677,1740.3780872251,-1.4458937519501e-11,5443.4439543567,5730.1516494576,-4.392361079504,2.1515393633376e-12,1740.83865662,4.7217494237445e-11,5459.3166230065
1.198,1371.2415368338,-1.0782871123771e-11,4265.7701228203,4482.4925445803,0.0003651594886378,9.3112013325319e-12,1371.7738932946,4.427375740329e-11,4267.4319910097,537.22230797039,1.7968982204963e-11,1664.3819509207,0.69385263240392,5.4246295823346e-11,5179.9059005126,1748.929412678,-1.3752828736946e-11,5440.7124018836,5730.1583484824,-4.4128320731802,-4.1367343578402e-13,1749.3945825049,4.4279704902728e-11,5456.5880150944
1.199,1377.9374451045,-1.1482719289302e-11,4263.601326688,4482.4912955502,0.00036616082610408,1.4050389974749e-11,1378.4751137958,4.924837946306e-11,4265.2707505303,542.47356731244,1.7908435476742e-11,1671.6660040017,0.69735621234005,5.3836361584014e-11,5174.6752972206,1757.4764508733,-1.4645486212661e-11,5437.9674157874,5730.1650154856,-4.4332811186708,5.6290315290919e-12,1757.9462426048,5.0624664616611e-11,5453.8459610434
1.2,1384.6299232744,-1.1104762942526e-11,4261.4220201186,4482.4900465419,0.00036715206391591,9.9813044114605e-12,1385.1729292444,4.5051735128934e-11,4263.0989870557,547.74768287554,1.8107976923476e-11,1678.93355415,0.70085978486615,5.3983700756127e-11,5169.4218377312,1766.0191807075,-1.4163489825414e-11,5435.209002797,5730.1716505057,-4.4537081655936,4.401891177952e-13,1766.4936157893,4.5272198750251e-11,5451.0904675258
1.201,1391.3189548454,-1.1979434805243e-11,4259.2322085371,4482.4887975534,0.00036813325311869,5.1680864449066e-12,1391.8673231154,4.0771118902869e-11,4260.916705949,553.04460269461,1.8011952172825e-11,1686.1845296466,0.70436334997731,5.3294802598858e-11,5164.1455740093,1774.5575810876,-1.5279137330348e-11,5432.4371696748,5730.1782535746,-4.4741131634258,-5.7001629978626e-12,1775.036680937,3.9812592892569e-11,5448.3215412415
1.202,1398.0045233282,-1.1540352007344e-11,4257.031897394,4482.4875485848,0.00036910433851745,1.2001325714467e-11,1398.558278893,4.7282480881983e-11,4258.7239126008,558.36427457951,1.8231628012844e-11,1693.4188589365,0.70786690767263,5.359213897313e-11,5158.8465582452,1783.0916309314,-1.4719168592303e-11,5429.6519232159,5730.1848247273,-4.4944960618399,3.0154737214183e-12,1783.5754169373,4.8117665667896e-11,5445.5391889258
1.203,1404.6866122417,-1.1665291996255e-11,4254.8210921658,4482.4862996375,0.00037006528282291,7.9019759485766e-12,1405.2457800701,4.3390112249714e-11,4256.520612429,563.7066461156,1.82752640061e-11,1700.6364706288,0.71137045795057,5.3193801793916e-11,5153.5248428534,1791.6213091671,-1.4878587945022e-11,5426.853270249,5730.1913640001,-4.5148568105418,-2.2144278598313e-12,1792.109802691,4.3153216677111e-11,5442.7434173486
1.204,1411.3652051139,-1.1114909340137e-11,4252.599798355,4482.4850507089,0.00037101609683532,8.6219128624804e-12,1411.929810147,4.3698868959149e-11,4254.3068108738,569.07166466422,1.8384225673913e-11,1707.8372934976,0.71487400081074,5.3540791158241e-11,5148.1804804726,1800.1465947337,-1.4176645968256e-11,5424.0412176355,5730.1978714247,-4.5351953592233,-1.2938977146659e-12,1800.6398171078,4.3547146357653e-11,5439.9342333087
1.205,1418.0402854811,-1.1344229375321e-11,4250.3680214898,4482.4838018018,0.00037195673519363,5.8840647198383e-12,1418.6103526342,4.1127408119748e-11,4252.0825134062,574.45927736322,1.8451964457246e-11,1715.021256483,0.71837753624849,5.3458968588688e-11,5142.8135239649,1808.6674665811,-1.4469193204691e-11,5421.2157722702,5730.2043470396,-4.5555116577129,-4.7858683162316e-12,1809.1654391099,4.0267436520608e-11,5437.1116436439
1.206,1424.7118368886,-1.1100637770101e-11,4248.1257671243,4482.4825529143,0.00037288719732942,6.5795242518152e-12,1425.2873910494,4.1655461415283e-11,4249.8477255188,579.86943112748,1.8541846443648e-11,1722.1882886912,0.72188106426227,5.3647327899475e-11,5137.4240264154,1817.1839036699,-1.4158559741295e-11,5418.3769410807,5730.2107908774,-4.5758056558281,-3.8977449740019e-12,1817.6866476289,4.0941068243927e-11,5434.27565522
1.207,1431.3798428905,-1.0753243781525e-11,4245.8730408384,4482.4813040473,0.000373807399626,4.5471603912772e-12,1431.9609089197,3.956702088366e-11,4247.6024527326,585.30207264947,1.8665091065621e-11,1729.3383193959,0.7253845848506,5.3623582570855e-11,5132.0120411316,1825.6958849716,-1.3715518304425e-11,5415.5247310278,5730.2172029742,-4.5960773035528,-6.4910628955195e-12,1826.2034216077,3.8277400780246e-11,5431.4262749389
1.208,1438.0442870495,-1.0982404222148e-11,4243.6098482379,4482.4800551995,0.00037471743064543,1.7468803747284e-11,1438.6308897806,5.2455676304367e-11,4245.3467005924,590.7571483997,1.8698493708252e-11,1736.4712780385,0.7288880980124,5.3636231740761e-11,5126.577621643,1834.2033894687,-1.4007862578214e-11,5412.6591491053,5730.2235833636,-4.6163265507011,9.9921728877184e-12,1834.7157399994,5.4716834362034e-11,5428.5635097331
1.209,1444.7051529373,-1.082573961031e-11,4241.3361949542,4482.478806373,0.00037561715816992,3.8760273202848e-12,1445.2973171768,3.8808996597958e-11,4243.0804746723,596.23460462732,1.8757563969955e-11,1743.5870942287,0.73239160374552,5.3592964701504e-11,5121.1208217004,1842.7063961545,-1.380808661855e-11,5409.7802023401,5730.2299320834,-4.636553347432,-7.3469667849491e-12,1843.2235817691,3.7310726990619e-11,5425.6873665723
1.21,1451.3624241347,-1.085359753461e-11,4239.0520866448,4482.4775575659,0.00037650661897715,1.4067641799717e-11,1451.9601746611,4.9063099069602e-11,4240.8037805681,601.73438736061,1.8875991047995e-11,1750.6856977458,0.73589510204488,5.344951738151e-11,5115.6416952755,1851.2048840335,-1.3843690083171e-11,5406.887897792,5730.2362491666,-4.656757643736,5.6533701331407e-12,1851.7269258915,5.0389917932714e-11,5422.7978524543
1.211,1458.016084231,-1.1675141756151e-11,4236.7575289928,4482.4763087797,0.00037738576213542,6.5636688792448e-12,1458.6194457957,4.1822532416413e-11,4238.5166239049,607.25644240755,1.890298247792e-11,1757.7670185389,0.73939859291294,5.3176641475611e-11,5110.1402965602,1859.6988321212,-1.4891624391944e-11,5403.9822425538,5730.2425346504,-4.6769393897774,-3.9201211721185e-12,1860.2257513533,4.1154680791716e-11,5419.8949744143
1.212,1464.6661168248,-1.1083554213309e-11,4234.4525277069,4482.4750600128,0.00037825459253327,2.4908102923965e-12,1465.2751141511,3.765022343373e-11,4236.2190103306,612.8007153563,1.8989898304018e-11,1764.8309867275,0.74290207634663,5.3516788656865e-11,5104.6166799665,1868.1882194442,-1.4137120293856e-11,5401.0632437513,5730.2487885685,-4.6970985356998,-9.1122907830421e-12,1868.7200371512,3.5832987185097e-11,5416.9787395166
1.213,1471.3125055237,-1.0952849738288e-11,4232.1370885218,4482.4738112667,0.00037911306253591,6.5828579566551e-12,1471.9271633074,4.1650520922823e-11,4233.9109455219,618.36715157578,1.9175793765369e-11,1771.8775326028,0.74640555234201,5.35503425457e-11,5099.0709001253,1876.6730250405,-1.3970449797007e-11,5398.1309085432,5730.255010958,-4.7172350317745,-3.8953042180712e-12,1877.209762294,4.0935501516293e-11,5414.0491548622
1.214,1477.9552339444,-1.0312629222797e-11,4229.8112171978,4482.47256254,0.00037996118464889,7.9748551512493e-12,1478.5755768528,4.2699010343109e-11,4231.5924351784,623.9556962162,1.9319022401786e-11,1778.9065866276,0.74990902089838,5.3827707915954e-11,5093.5030118864,1885.1532279591,-1.3153891170736e-11,5395.1852441212,5730.261201853,-4.7373488282471,-2.1174654911416e-12,1885.6949058005,4.2272981556207e-11,5411.1062275818
1.215,1484.5942857125,-1.1118555728884e-11,4227.4749195209,4482.4713138331,0.00038079892004816,9.9964214423515e-12,1485.2203383851,4.4897663711851e-11,4229.2634850272,629.56629420961,1.9324447532616e-11,1785.9180794377,0.75341248201465,5.363423464036e-11,5087.9130703178,1893.6288072602,-1.4181914323452e-11,5392.2262577098,5730.2673612896,-4.7574398754872,4.622383205366e-13,1894.1754467015,4.5077535020671e-11,5408.1499648409
1.216,1491.2296444628,-1.1022687970708e-11,4225.128201303,4482.4700651475,0.00038162619142668,1.1336915781146e-11,1491.8614315114,4.6435433406419e-11,4226.9241008223,635.19889027042,1.9396650193133e-11,1792.9119418421,0.75691593568754,5.3598160198315e-11,5082.301130705,1902.0997420158,-1.4059690911505e-11,5389.2539565665,5730.2734893055,-4.7775081239737,2.1709591589703e-12,1902.6513640392,4.7039117826581e-11,5405.1803738397
1.217,1497.8612938396,-1.0952547896403e-11,4222.7710683814,4482.4688164807,0.00038244308035473,1.2031243622895e-11,1498.4988398467,4.7000932009225e-11,4224.5742883397,640.85342889596,1.9537986788339e-11,1799.8881048238,0.76041938191674,5.3677172082156e-11,5076.6672485507,1910.5660113087,-1.3970284998277e-11,5386.2683479816,5730.2795859335,-4.7975535240289,3.0558797679825e-12,1911.1226368657,4.7760551590004e-11,5402.1974618062
1.218,1504.489217496,-1.050975972916e-11,4220.4035266192,4482.4675678347,0.00038324949247226,-2.2282180441036e-12,1505.1325470164,3.2526295892787e-11,4222.2140533851,646.52985436703,1.9700166953469e-11,1806.8464995407,0.76392282069773,5.3824815698239e-11,5071.011479574,1919.0275942337,-1.3405550974843e-11,5383.2694392784,5730.2856512119,-4.8175760262667,-1.5131417820113e-11,1919.5892442461,2.9297736979517e-11,5399.2012360069
1.219,1511.1133990946,-1.09872111409e-11,4218.0255819053,4482.4663192088,0.00038404540180181,9.9901528022306e-12,1511.7625366542,4.4957708129206e-11,4219.8434017876,652.22811074843,1.9633491338787e-11,1813.787057326,0.7674262520302,5.360684162195e-11,5065.3338797101,1927.4844698966,-1.4014605448365e-11,5380.2572378129,5730.2916851759,-4.8375755812641,4.5352653924025e-13,1928.0511652557,4.515461442256e-11,5396.1917037379
1.22,1517.7338223072,-1.0584120385682e-11,4215.6372401539,4482.4650706024,0.00038483080504648,1.4090132706424e-11,1518.388792403,4.8836184879039e-11,4217.4623394022,657.94814188956,1.9782615649777e-11,1820.7097096889,0.77092967591349,5.3652811794064e-11,5059.6345051096,1935.9366174152,-1.3500494125407e-11,5377.2317509739,5730.2976878609,-4.8575521396265,5.6860952578341e-12,1936.5083789814,5.0101925212764e-11,5393.1688723284
1.221,1524.3504708152,-1.023989747162e-11,4213.2385073052,4482.4638220158,0.00038560570300206,1.001451157244e-11,1525.0112979155,4.472712911846e-11,4215.0708721101,663.68989142492,1.9939703750985e-11,1827.6143883155,0.77443309234109,5.3708619149329e-11,5053.913412138,1944.3840159185,-1.3061470308107e-11,5374.1929861832,5730.3036593033,-4.877505652011,4.8647717798556e-13,1944.9608645218,4.4860736653218e-11,5390.1327491412
1.222,1530.963328309,-1.0198713401577e-11,4210.8293893248,4482.4625734497,0.0003863700615625,2.5576769435015e-12,1531.6300368533,3.7045733668195e-11,4212.6690058188,669.4533027747,2.0076025911142e-11,1834.5010250694,0.77793650131459,5.4002609242015e-11,5048.170657375,1952.8266445474,-1.3009000127129e-11,5371.1409508952,5730.3095995404,-4.8974360691792,-9.0248091118295e-12,1953.4086009874,3.5062790344764e-11,5387.083341573
1.223,1537.5723784887,-1.0862932081634e-11,4208.409892204,4482.4613249024,0.00038712386333373,9.3149021482275e-12,1538.244992887,4.42318512546e-11,4210.2567464591,675.23831914532,2.0005626278838e-11,1841.3695519921,0.78143990283301,5.3451667571258e-11,5042.4062976142,1961.2644824545,-1.3856308461735e-11,5368.0756525972,5730.3155086062,-4.9173433419222,-4.0681694124522e-13,1961.851567499,4.42292261843e-11,5384.02065705
1.224,1544.1776050638,-1.1465344298967e-11,4205.9800219595,4482.4600763761,0.0003878670549966,1.1336811914578e-11,1544.8561496974,4.6440027604705e-11,4207.8340999911,681.04488353,2.0076177048925e-11,1848.219901304,0.78494329689022,5.3293711457791e-11,5036.6203898624,1969.697508804,-1.4624775349081e-11,5364.997098809,5730.3213865401,-4.9372274211428,2.1715016937374e-12,1970.2897431907,4.7046019857611e-11,5380.944703036
1.225,1550.7789917533,-1.1123485813003e-11,4203.5397846337,4482.4588278694,0.00038859964104176,1.8140315855356e-11,1551.4634909738,5.3188533005039e-11,4205.4010723972,686.87293870934,2.0049093244975e-11,1855.052005405,0.78844668348748,5.3231077098287e-11,5030.8129913389,1978.125702772,-1.41887751548e-11,5361.9052970835,5730.3272333767,-4.957088257718,1.0851485508778e-11,1978.723107207,5.5654358725732e-11,5377.8554870234
1.226,1557.3765222858,-1.1526911369852e-11,4201.0891862948,4482.4575793822,0.00038932156502369,1.0638404870575e-11,1558.0670004152,4.5922224139669e-11,4202.9576696867,692.72242725183,2.0130549571035e-11,1861.8657968749,0.7919500626238,5.2900013362833e-11,5024.9841594753,1986.5490435465,-1.4703422507312e-11,5358.8002550061,5730.3330491524,-4.9769258026652,1.2805238640279e-12,1987.1516387044,4.6385760250206e-11,5374.7530165389
1.227,1563.9701803993,-1.1525776860699e-11,4198.628233036,4482.4563309158,0.00039003282637395,4.5155695588966e-12,1564.6666617307,3.9820545732344e-11,4200.5038978955,698.59329151449,2.0072920322439e-11,1868.6612084746,0.79545343429223,5.2938013347936e-11,5019.1339519144,1994.9675103272,-1.4702032993807e-11,5355.6819801948,5730.3388339055,-4.9967400069893,-6.5279374787675e-12,1995.5753168518,3.8602698294865e-11,5371.6372991434
1.228,1570.5599498417,-1.2159755841123e-11,4196.1569309764,4482.4550824685,0.00039073343481277,1.1300662228902e-11,1571.2624586377,4.6782652621605e-11,4198.0397630827,704.48547364339,2.013835734456e-11,1875.4381731461,0.79895679849602,5.2750410810265e-11,5013.2624265102,2003.3810823261,-1.5510778425543e-11,5352.5504803005,5730.3445876707,-5.0165308217336,2.1247231404842e-12,2003.9941208289,4.7483566991552e-11,5368.5083424273
1.229,1577.1458143703,-1.2131568319362e-11,4193.6752862606,4482.4538340412,0.00039142334844655,3.8145092553371e-12,1577.8543748641,3.9355136554134e-11,4195.5652713351,710.39891557422,2.0334505780595e-11,1882.1966240138,0.80246015523059,5.2558007425374e-11,5007.3696413269,2011.7897387669,-1.5474888731548e-11,5349.4057630067,5730.3503104857,-5.0362981980708,-7.4249551819394e-12,2012.4080298281,3.8009209061413e-11,5365.3661540165
1.23,1583.7277577524,-1.1651004813706e-11,4191.1833050586,4482.4525856341,0.0003921024876945,1.1326723413363e-11,1584.4423941471,4.6562880938114e-11,4193.0804287644,716.33355903288,2.0394502709895e-11,1888.9364943846,0.80596350449254,5.2940065525808e-11,5001.4556546387,2020.1934588855,-1.48619380691e-11,5346.2478360294,5730.3560023877,-5.056042087278,2.1569122356235e-12,2020.8170230535,4.7203481574887e-11,5362.2107415692
1.231,1590.3057637648,-1.149291425917e-11,4188.6809935658,4482.4513372464,0.00039277093554801,3.1603170601302e-12,1591.0265002334,3.8429647485072e-11,4190.5852415071,722.28934553609,2.0642130799803e-11,1895.6577177491,0.80946684628213,5.2845958078279e-11,4995.5205249288,2028.5922219299,-1.4660335445615e-11,5343.0767071173,5730.3616634128,-5.0757624404805,-8.2579828392104e-12,2029.2210797208,3.6828843794079e-11,5359.0421127747
1.232,1596.8798161942,-1.2141451039005e-11,4186.1683580033,4482.4500888781,0.00039342861884961,4.4955541025904e-12,1597.6066768794,4.0018198390473e-11,4188.0797157258,728.26621639187,2.0538926028685e-11,1902.3602277818,0.81297018059723,5.2485512897632e-11,4989.5643108891,2036.9860071603,-1.5487666704672e-11,5339.8923840519,5730.3672935977,-5.0954592090628,-6.5553183541123e-12,2037.620179058,3.8855309594799e-11,5355.8602753558
1.233,1603.4498988372,-1.2074842861698e-11,4183.6454046174,4482.4488405307,0.00039407546802295,7.2190966312474e-12,1604.1829078517,4.2688340059008e-11,4185.5638576101,734.26411270023,2.0586822611218e-11,1909.043958342,0.81647350743329,5.2540126763145e-11,4983.5870714196,2045.374793849,-1.540276066414e-11,5336.6948746469,5730.3728929817,-5.1151323444662,-3.0794203992324e-12,2046.0143003061,4.2261482941647e-11,5352.6652370704
1.234,1610.0159955,-1.1825531873177e-11,4181.1121396799,4482.4475922026,0.00039471151040971,1.1998114307632e-11,1610.7551769258,4.7259426840668e-11,4183.037673372,740.28297535366,2.0768547038391e-11,1915.7088434743,0.81997682679304,5.2744112896685e-11,4977.5888656278,2053.7585612806,-1.5084799728782e-11,5333.4841867489,5730.3784615997,-5.1347817980594,3.0172062764899e-12,2054.4034227163,4.809254990773e-11,5349.4570057045
1.235,1616.578089999,-1.1993982196312e-11,4178.5685694882,4482.4463438938,0.00039533676294923,7.231157729895e-12,1617.3234678874,4.2621559493555e-11,4180.5011692509,746.32274503779,2.0838427771536e-11,1922.3548174094,0.82348013867156,5.2409401905124e-11,4971.5697528281,2062.1372887523,-1.5299737171626e-11,5330.2603282368,5730.3839994892,-5.1544075212881,-3.0668276078394e-12,2062.7875255535,4.2176500139601e-11,5346.2355890795
1.236,1623.1361661604,-1.1227322890828e-11,4176.0147003648,4482.445095605,0.00039595113548785,5.2218134330428e-12,1623.8877645321,4.0261856348867e-11,4177.9543515118,752.38336223191,2.1025751018727e-11,1928.9818145647,0.82698344306371,5.2848114773241e-11,4965.5297925411,2070.5109555731,-1.4321844057918e-11,5327.0233070222,5730.3895066881,-5.1740094657922,-5.6259940282855e-12,2071.1665880943,3.9166524190559e-11,5343.0009950492
1.237,1629.6902078205,-1.1524217344294e-11,4173.4505386578,4482.443847336,0.00039655465252508,7.2297970561686e-12,1630.4480506655,4.2569964480571e-11,4175.3972264447,758.4647672096,2.1071483100044e-11,1935.5897695449,0.83048673997216,5.2403818697616e-11,4959.4690444932,2078.8795410649,-1.4700617459451e-11,5323.7731310491,5730.3949832338,-5.1935875831239,-3.0646726476014e-12,2079.5405896279,4.2110927158528e-11,5339.7532314999
1.238,1636.2401988255,-1.1737848540361e-11,4170.8760907406,4482.4425990864,0.00039714725284057,9.2911108494353e-12,1637.0043101026,4.445465675261e-11,4172.8298003645,764.56690003931,2.105397431916e-11,1942.1786171428,0.8339900293917,5.233742562602e-11,4953.387568616,2087.243024562,-1.4973175477273e-11,5320.509808294,5730.4004291633,-5.2131418250028,-4.3729429799466e-13,2087.9095094553,4.4515212262869e-11,5336.4923063496
1.239,1642.7861230317,-1.173118546749e-11,4168.2913630119,4482.441350857,0.00039772893882173,1.8122582644622e-11,1643.556526669,5.3362503001433e-11,4170.252079613,770.68970058494,2.1171660778696e-11,1948.7482923396,0.83749331132318,5.2300721913034e-11,4947.2854250454,2095.601385411,-1.496474472118e-11,5317.233346766,5730.4058445149,-5.2326721431288,1.0828305700011e-11,2096.2733268905,5.5878554387767e-11,5333.2182275504
1.24,1649.3279643056,-1.0935859856565e-11,4165.6963618959,4482.4401026467,0.00039829968528693,1.4768822449718e-11,1650.1046841995,4.953423153424e-11,4167.6640705554,776.83310850645,2.138673786678e-11,1955.2987303059,0.8409965857638,5.2780445378847e-11,4941.1626741216,2103.9546029712,-1.3950250676853e-11,5313.9437545064,5730.411229325,-5.2521784892911,6.5524838159525e-12,2104.6320212593,5.0995183336483e-11,5329.9310030847
1.241,1655.8657065237,-1.1057481319465e-11,4163.091093842,4482.4388544563,0.00039885948223173,7.9660015563088e-12,1656.6487665397,4.2783091305787e-11,4165.0657795841,782.99706326044,2.1367156958704e-11,1961.8298664023,0.84449985271185,5.2444863122419e-11,4935.0193763879,2112.3026566146,-1.4105452916802e-11,5310.6410395891,5730.4165836324,-5.271660815324,-2.1262375540787e-12,2112.9855719006,4.2383211090041e-11,5326.6306409697
1.242,1662.3993335729,-1.0667137312348e-11,4160.4755653248,4482.4376062854,0.00039940827150531,1.750687008556e-11,1663.1887575448,5.2072699451011e-11,4162.4572131157,789.18150410076,2.1553928997511e-11,1968.3416361797,0.84800311216,5.2812543834685e-11,4928.8555925905,2120.6455257258,-1.3607569931962e-11,5307.3252101204,5730.4219074742,-5.2911190731789,1.0047902180427e-11,2121.3339581654,5.4233687419442e-11,5323.3171492535
1.243,1668.92882935,-1.0888743032234e-11,4157.8497828444,4482.4363581347,0.0003999460489581,3.8896923876264e-12,1669.7246410804,3.8648034425548e-11,4159.8383775932,795.3863700791,2.1598379335019e-11,1974.8339753803,0.8515063641147,5.2694047042445e-11,4922.6713836775,2128.9831897021,-1.3890298633523e-11,5303.9962742389,5730.4272008892,-5.3105532148009,-7.3244973454456e-12,2129.6771594178,3.7108495096194e-11,5319.9905360179
1.244,1675.4541777623,-1.0490906754423e-11,4155.213752926,4482.4351100024,0.00040047283539479,1.137773599294e-11,1676.2564010215,4.6035000464406e-11,4157.2092794827,801.6116000456,2.1697720009595e-11,1981.3068199383,0.8550096085666,5.2672192562414e-11,4916.4668107989,2137.3156279536,-1.338285211816e-11,5300.6542401157,5730.4324639132,-5.3299631921573,2.2284639411563e-12,2138.0151550336,4.6531903330482e-11,5316.6508093747
1.245,1681.9753627275,-1.0839924444173e-11,4152.5674821203,4482.4338618913,0.00040098853440895,1.2048898771072e-11,1682.7840212548,4.6797381508118e-11,4154.5699252799,807.85713264946,2.1652376072656e-11,1987.7601059799,0.85851284551817,5.2544257139742e-11,4910.2419353055,2145.6428199033,-1.3828141756655e-11,5297.299115954,5730.4376965876,-5.3493489574342,3.0844124997154e-12,2146.3479244029,4.7504576227569e-11,5313.2979774729
1.246,1688.4923681734,-1.0649550685748e-11,4149.9109770029,4482.4326137986,0.00040149319556804,1.2730590019661e-11,1689.3074856754,4.7465323772117e-11,4151.9203215002,814.12290633951,2.1843023700549e-11,1994.1937698249,0.86201607496723,5.2282182923247e-11,4903.9968187482,2153.964744987,-1.3585323838106e-11,5293.9309099897,5730.4428989468,-5.3687104626788,3.9535128643076e-12,2154.6754469265,4.8356776482378e-11,5309.9320484874
1.247,1695.0051780384,-1.0936404559736e-11,4147.2442441749,4482.4313657257,0.00040198675026204,8.6455144258923e-12,1695.8267781899,4.3439796031108e-11,4149.260474689,820.40885936487,2.1949566513316e-11,2000.6077479864,0.8655192969081,5.2325588306701e-11,4897.7315228781,2162.2813826533,-1.3951326205408e-11,5290.5496304907,5730.4480710311,-5.3880476601589,-1.2580643991844e-12,2162.9977020196,4.3221611619598e-11,5306.553030631
1.248,1701.5137762711,-9.6104998958957e-12,4144.5672902624,4482.4301176723,0.00040246919911624,1.9582163147958e-11,1702.3418827149,5.3812766308975e-11,4146.5903914145,826.71492977552,2.2171047333111e-11,2007.0019771719,0.86902251133994,5.2708808671864e-11,4891.4461096452,2170.5927123641,-1.2259930917691e-11,5287.1552857572,5730.453212878,-5.4073605021098,1.269316509539e-11,2171.3146691096,5.6454381100468e-11,5303.1609321461
1.249,1708.0181468307,-9.718904500633e-12,4141.880121917,4482.4288696378,0.00040294054423384,1.0062729729338e-11,1708.852783177,4.4272062144773e-11,4143.9100782704,833.04105542292,2.2195667179203e-11,2013.3763942841,0.8725257182622,5.282071091281e-11,4885.1406411978,2178.898713594,-1.23982751149e-11,5283.7478841218,5730.4583245251,-5.4266489408243,5.5216812025471e-13,2179.6263276366,4.4283542978418e-11,5299.7557613074
1.25,1714.518273687,-1.015611032773e-11,4139.1827458151,4482.4276216237,0.00040340069870126,5.9638856353406e-12,1715.359463514,4.0373623281381e-11,4141.2195418775,839.38717396065,2.2306252765031e-11,2019.730936421,0.8760289176738,5.2602294482035e-11,4878.8151798825,2187.1993658309,-1.2956063305536e-11,5280.3274339494,5730.4634060129,-5.4459129287734,-4.6780079809849e-12,2187.9326570547,3.9310432946998e-11,5296.3375264247
1.251,1721.0141408201,-1.029239887762e-11,4136.4751686584,4482.4263736292,0.00040384965564044,1.0028651520333e-11,1721.8619076733,4.458804072488e-11,4138.5187888797,845.75322284497,2.2329393542519e-11,2026.0655408769,0.87953210956786,5.2456536944051e-11,4872.4697882429,2195.4946485759,-1.3129990150684e-11,5276.8939436369,5730.4684573787,-5.4651524183816,5.0719801622523e-13,2196.2336368299,4.4686877028605e-11,5292.9062358368
1.252,1727.5057322209,-9.4648507781292e-12,4133.7573971739,4482.425125654,0.0004042874248853,1.1433068467653e-11,1728.360099613,4.5529593116489e-11,4135.8078259465,852.1391393355,2.241474302174e-11,2032.3801451429,0.88303529394683,5.2732905715669e-11,4866.1045290194,2203.7845413429,-1.2074320709932e-11,5273.4474216136,5730.4734786606,-5.4843673621141,2.3010864047546e-12,2204.5292464414,4.5888142678058e-11,5289.4618979158
1.253,1733.9930318909,-9.7694387302116e-12,4131.0294381135,4482.4238776974,0.00040471403281117,1.9581633623617e-11,1734.8540233016,5.3790062681802e-11,4133.0866597722,858.5448604958,2.245597566404e-11,2038.6746869075,0.88653847080767,5.2599975156747e-11,4859.7194651484,2212.0690236594,-1.2462943871361e-11,5269.9878763408,5730.4784698965,-5.5035577124744,1.2695611055491e-11,2212.8194653817,5.6426239548879e-11,5286.0045210654
1.254,1740.4760238421,-9.8487554917037e-12,4128.2912982544,4482.4226297612,0.00040512933691161,3.2424223896099e-12,1741.3436627188,3.7670645682691e-11,4130.3552970785,864.970323194,2.2540164179574e-11,2044.9491040575,0.89004164014707,5.2406542213473e-11,4853.3146597617,2220.3480750661,-1.2564175394525e-11,5266.5153163122,5730.4834311272,-5.5227234222464,-8.1493058828874e-12,2221.1042731569,3.5862581133916e-11,5282.5341137244
1.255,1746.9546920973,-9.9346364468289e-12,4125.5429843987,4482.4213818442,0.00040553340926408,1.209463649024e-11,1747.8290018541,4.6386333576315e-11,4127.6137446098,871.41546410342,2.276993480918e-11,2051.2033346779,0.89354480196153,5.263855367213e-11,4846.8901761861,2228.6216751169,-1.2673799509866e-11,5263.0297500533,5730.4883623898,-5.5418644439964,3.1436780262295e-12,2229.3836492855,4.698146602658e-11,5279.0506843604
1.256,1753.4290206901,-9.5338060362993e-12,4122.7845033737,4482.4201339462,0.00040592620115376,1.2115483963293e-11,1754.3100247077,4.6185153791678e-11,4124.8620091364,877.88021970321,2.3002228160401e-11,2057.4373170534,0.89704795625378,5.2819005245952e-11,4840.4460779422,2236.8898033792,-1.2162477622257e-11,5259.5311861222,5730.4932637232,-5.5609807305073,3.1714231935043e-12,2237.6575732995,4.6724942925208e-11,5275.5542414745
1.257,1759.8989936648,-9.295786362884e-12,4120.0158620318,4482.4188860683,0.00040630767011862,1.4850977218817e-11,1760.7867152911,4.8748582861385e-11,4122.1000974547,884.36452627897,2.3087429971286e-11,2063.6509896684,0.90055110301665,5.2813200427521e-11,4833.9824287446,2245.1524394338,-1.1858892340344e-11,5256.0196331086,5730.4981351676,-5.580072234617,6.6620220624813e-12,2245.926024745,4.9995315179463e-11,5272.0447936013
1.258,1766.3645950766,-8.9350853105241e-12,4117.2370672502,4482.4176382089,0.00040667786197446,9.4244130728616e-12,1767.2590576255,4.3187862140692e-11,4119.3280163841,890.86831992336,2.3342376209018e-11,2069.8442912076,0.90405424225068,5.3007023683577e-11,4827.4992925005,2253.4095628751,-1.139878642864e-11,5252.4950996347,5730.5029767598,-5.5991389091072,-2.5979739193271e-13,2254.1889831799,4.2901438478127e-11,5268.5223493044
1.259,1772.8258089915,-9.3210404672472e-12,4114.4481259314,4482.4163903699,0.00040703664308239,1.0751190736291e-11,1773.7270357442,4.4863266313727e-11,4116.5457727721,897.39153653677,2.3153395216705e-11,2076.0171605572,0.90755737395392,5.2543441386027e-11,4820.9967333094,2261.6611533109,-1.1891211973425e-11,5248.9575943544,5730.5077885415,-5.618180707057,1.430881454989e-12,2262.4464281773,4.5038930050756e-11,5264.9869171838
1.26,1779.2826194863,-9.3610692114554e-12,4111.6490450027,4482.4151425494,0.00040738409791174,1.2124318476275e-11,1780.1906336896,4.6107763006925e-11,4113.7533734875,903.93411182789,2.3273551055109e-11,2082.1695368048,0.91106049812206,5.2759289558696e-11,4814.4748154628,2269.9071903626,-1.1942315192304e-11,5245.4071259538,5730.512570549,-5.6371975813201,3.1827925711658e-12,2270.6983393219,4.6626712907338e-11,5261.4385058668
1.261,1785.735010649,-9.3798788181054e-12,4108.8398314166,4482.4138947486,0.00040772015449875,1.0766935953921e-11,1786.6498355164,4.4719900092055e-11,4110.9508254277,910.49598131443,2.326009697351e-11,2088.3013592404,0.91456361475335,5.2589595005148e-11,4807.9336034427,2278.1476536652,-1.1966363663851e-11,5241.8437031511,5730.5173228235,-5.6561894850188,1.4521829919123e-12,2278.9446962137,4.4856273209715e-11,5257.8771240168
1.262,1792.1829665782,-9.5634489910568e-12,4106.0204921504,4482.4126469669,0.00040804480329371,1.5509381539464e-11,1793.1046252892,4.9637056617757e-11,4108.1381355129,917.07708032369,2.3323260423674e-11,2094.4125673568,0.91806672384842,5.2486381126732e-11,4801.373161922,2286.3825228674,-1.2200594701195e-11,5238.2673346965,5730.5220454032,-5.6751563712521,7.5014603903578e-12,2287.1854784648,5.1129482158546e-11,5254.302780327
1.263,1798.626471384,-9.7455776087996e-12,4103.1910342064,4482.4113992051,0.00040835799092065,1.1417057837332e-11,1799.5549870843,4.5665536456407e-11,4105.3153106898,923.67734399321,2.3308367605793e-11,2100.5031008504,0.92156982540096,5.2218614848831e-11,4794.793555763,2294.6117776319,-1.2432993870548e-11,5234.6780293718,5730.5267383286,-5.6940981932411,2.281090247247e-12,2295.4206657022,4.6062909563049e-11,5250.7154835242
1.264,1805.0655091871,-1.062682927766e-11,4100.3514646119,4482.4101514609,0.00040865980554372,1.2075162918179e-11,1806.0009049876,4.6552476717227e-11,4102.4823579272,930.29670727144,2.3240155676632e-11,2106.5728996218,0.9250729194133,5.2038916144997e-11,4788.1948500173,2302.8353976348,-1.3557318462309e-11,5231.0757959913,5730.5314016362,-5.7130149040817,3.1200133622511e-12,2303.6502375646,4.7194560325731e-11,5247.1152423638
1.265,1811.5000641195,-1.0492553007002e-11,4097.5017904189,4482.4089037375,0.00040895009385622,1.1395220270854e-11,1812.4423630979,4.5899471723398e-11,4099.6392842241,936.93510491834,2.3485480704286e-11,2112.6219037759,0.92857600588109,5.2033813889574e-11,4781.5771099249,2311.0533625662,-1.3386066560761e-11,5227.4606434008,5730.5360353695,-5.73190645725,2.250780291313e-12,2311.8741737073,4.6361596853228e-11,5243.5020656394
1.266,1817.9301203244,-1.0508566239409e-11,4094.6420187046,4482.4076560331,0.00040922888348405,3.9193097552126e-12,1818.8793455235,3.8386750809277e-11,4096.7860965997,943.59247150606,2.3570591659028e-11,2118.6500536232,0.93207908479994,5.1972740781198e-11,4774.9404009136,2319.2656521301,-1.3406546706118e-11,5223.8325804783,5730.5406395657,-5.7507728060437,-7.2867163691814e-12,2320.0924537969,3.6777170284857e-11,5239.875962171
1.267,1824.3556619561,-9.9188175034515e-12,4091.772156571,4482.4064083475,0.00040949618232844,1.3467329681993e-11,1825.311836384,4.7601487855597e-11,4093.9228020996,950.26874141957,2.3705866913568e-11,2124.65728968,0.93558215617272,5.2105392917001e-11,4768.2847885984,2327.4722460446,-1.2654211012375e-11,5220.1916161334,5730.5452142643,-5.7696139038521,4.897294809264e-12,2328.3050575146,4.8533261177292e-11,5236.2369408121
1.268,1830.77667318,-1.0118652443714e-11,4088.8922111447,4482.4051606816,0.00040975195486226,9.3634388437236e-12,1831.7398198108,4.3766424512315e-11,4091.0494077956,956.9638488573,2.3672454187856e-11,2130.643552669,0.9390852199902,5.2078664297683e-11,4761.6103387808,2335.6731240413,-1.2909203220279e-11,5216.5377593078,5730.5497595063,-5.7884297041824,-3.3960421280677e-13,2336.5119645559,4.3640667468647e-11,5232.5850104498
1.269,1837.1931381729,-1.0227523689066e-11,4086.0021895775,4482.4039130345,0.00040999613992199,1.2763808673183e-11,1838.1632799455,4.7148327343011e-11,4088.1659207824,963.67772783182,2.3752698159046e-11,2136.6087835199,0.94258827625902,5.1770485034325e-11,4754.9171174483,2343.8682658665,-1.3048161509599e-11,5212.871018975,5730.55427533,-5.8072201606355,3.9991595104927e-12,2344.7131546294,4.7955385756165e-11,5228.9201800005
1.27,1843.6050411228,-9.7579687385885e-12,4083.1020990459,4482.4026654065,0.00041022879736374,2.5866526802421e-12,1844.5822009416,3.6754225964802e-11,4085.2723481811,970.41031217045,2.3817837892931e-11,2142.5529233701,0.94609132496965,5.210589121632e-11,4748.2051907735,2352.05765128,-1.2449161493344e-11,5209.1914041401,5730.5587617759,-5.8259852267211,-8.9827442359414e-12,2352.9086074583,3.4694763555165e-11,5225.2424584147
1.271,1850.0123662292,-1.0150175838719e-11,4080.1919467512,4482.4014177979,0.00041044982435778,8.691791644061e-12,1850.9965669634,4.3005408262298e-11,4082.3686971373,977.16153551594,2.3944632301237e-11,2148.4759135652,0.94959436612233,5.1929749129292e-11,4741.4746251136,2360.241260056,-1.2949566766118e-11,5205.4989238404,5730.5632188842,-5.8447248562211,-1.1952422558636e-12,2361.0983027797,4.2670117873095e-11,5221.5518546738
1.272,1856.4150977027,-1.0445861189923e-11,4077.2717399195,4482.4001702082,0.0004106592330686,1.4806658069771e-11,1857.4063621866,4.9157216491791e-11,4079.454974821,983.93133132712,2.3842604756838e-11,2154.3776956595,0.95309739971538,5.1769895228343e-11,4734.7254870098,2368.419071983,-1.332686738742e-11,5201.7935871446,5730.5676466944,-5.8634390028296,6.6062819277513e-12,2369.2822203445,5.051874370221e-11,5217.8483777911
1.273,1862.8132197655,-1.03713600208e-11,4074.3414858016,4482.3989226378,0.00041085701013799,6.6417054148116e-12,1863.8115707982,4.1048753805784e-11,4076.5311884277,990.71963287955,2.4002383197316e-11,2160.2582114166,0.9566004257474,5.1637796903009e-11,4727.9578431865,2376.5910668634,-1.3231875664599e-11,5198.0754031533,5730.5720452469,-5.8821276203386,-3.81033355909e-12,2377.460339918,4.0174012554128e-11,5214.1320368118
1.274,1869.2067166512,-1.0380311193936e-11,4071.4011916733,4482.3976750866,0.00041104313834239,1.2072232102867e-11,1870.2121769966,4.6538107568994e-11,4073.5973451773,997.52637326618,2.4107480551747e-11,2166.1174028103,0.96010344421408,5.1625333782196e-11,4721.1717605506,2384.7572245144,-1.3243345656222e-11,5194.3443809988,5730.5764145817,-5.9007906626086,3.1194968483361e-12,2385.6326412795,4.7177529678005e-11,5210.4028408131
1.275,1875.5955726048,-1.0097183505975e-11,4068.4508648348,4482.396427554,0.000411217596195,7.9912083894573e-12,1876.6081649911,4.2504119147913e-11,4070.6534523143,1004.351485398,2.412972534456e-11,2171.9552120245,0.96360645511586,5.1446568793273e-11,4714.3673061912,2392.9175247669,-1.2882171024353e-11,5190.6005298453,5730.5807547386,-5.9194280835661,-2.0892194224631e-12,2393.7991042224,4.2031002376458e-11,5206.6607989031
1.276,1881.979771883,-1.0575538708646e-11,4065.4905126112,4482.3951800409,0.00041138032236177,7.9895083604509e-12,1882.9995190031,4.2546213947781e-11,4067.699517109,1011.1949020048,2.4049046608299e-11,2177.7715814546,0.96710945844457,5.1429237171025e-11,4707.5445473786,2401.0719474667,-1.3492521336311e-11,5186.8438588884,5730.5850657586,-5.9380398372548,-2.0917326030989e-12,2401.9597085547,4.2084820003896e-11,5202.9059202232
1.277,1888.3592987539,-1.0449799012213e-11,4062.5201423525,4482.3939325471,0.00041153135452987,1.6155281105934e-11,1889.3862232651,5.0613009009576e-11,4064.7355468556,1018.0565556357,2.413616810755e-11,2183.5664537072,0.97061245420514,5.1500634919849e-11,4700.7035515634,2409.2204724739,-1.3332166967639e-11,5183.0743773555,5730.5893476821,-5.956625877654,8.3275344085754e-12,2410.1144340986,5.2376799512116e-11,5199.1382139456
1.278,1894.7341374973,-1.1213228262585e-11,4059.539761433,4482.3926850718,0.00041167063665171,9.3160444636364e-12,1895.7682620208,4.4209955141206e-11,4061.7615488726,1024.9363786598,2.4156747132145e-11,2189.3397716015,0.97411544239115,5.105872235428e-11,4693.8443863767,2417.3630796629,-1.4306210729953e-11,5179.2920945056,5730.5936005485,-5.9751861589245,-4.0135126125329e-13,2418.2632606901,4.4207688724984e-11,5195.3576892736
1.279,1901.1042724045,-1.0480477596886e-11,4056.5493772519,4482.3914376155,0.00041179816736303,1.138533147968e-11,1902.1456195258,4.5967092545535e-11,4058.7775305044,1031.834303267,2.4297626410874e-11,2195.0914781692,0.97761842300398,5.1275606590545e-11,4686.9671196285,2425.4997489228,-1.3371382126537e-11,5175.4970196295,5730.5978243988,-5.9937206352222,2.2412570931107e-12,2426.4061681805,4.6449640141166e-11,5191.5643554432
1.28,1907.4696877786,-1.0719806986526e-11,4053.548997233,4482.3901901787,0.00041191388555717,1.409244162337e-11,1908.5182800476,4.8758787372233e-11,4055.7834991202,1038.7502614685,2.4217357719875e-11,2200.8215166554,0.98112139603616,5.118613258942e-11,4680.0718193074,2433.6304601573,-1.36767888681e-11,5171.6891620492,5730.6020192745,-6.0122292608462,5.6980219154124e-12,2434.5431364352,5.00115430839e-11,5187.7582217226
1.281,1913.8303679345,-1.0532897470883e-11,4050.5386288249,4482.3889427604,0.00041201787394129,1.0029582633159e-11,1914.8862278642,4.4577572102383e-11,4052.779462112,1045.6841850976,2.4541842082865e-11,2206.5298305192,0.98462436149028,5.1432546589736e-11,4673.1585535802,2441.7551932848,-1.3438373677732e-11,5167.8685311186,5730.6061852145,-6.0307119899688,5.1104780129929e-13,2442.6741453337,4.4677058927411e-11,5183.9392974094
1.282,1920.1862971987,-1.0899774138817e-11,4047.5182795004,4482.3876953607,0.00041210996778318,1.5453513468877e-11,1921.2494472661,5.0105602826533e-11,4049.7654268983,1052.6360058104,2.4558090587143e-11,2212.2163634341,0.98812731936202,5.1128198463174e-11,4666.2273907908,2449.8739282381,-1.3906500950789e-11,5164.0351362231,5730.6103222601,-6.0491687771475,7.4341028125091e-12,2450.7991747703,5.1730155315594e-11,5180.1075918346
1.283,1926.5374599094,-1.0344145678909e-11,4044.4879567574,4482.386447981,0.00041219022955374,1.8832795566082e-12,1927.6079225558,3.6300232351266e-11,4046.7414009229,1059.6056550864,2.478819623522e-11,2217.8810592884,0.99163026964962,5.1413563510738e-11,4659.2783994597,2457.986644965,-1.3197651305141e-11,5160.1889867796,5730.6144304537,-6.0675995767143,-9.8812867610487e-12,2458.9182046549,3.411655897026e-11,5176.2631143621
1.284,1932.883840417,-1.081334327635e-11,4041.4476681179,4482.3852006193,0.00041225866635841,9.3388959759855e-12,1933.9616380463,4.3979680140749e-11,4043.7073916514,1066.593064229,2.482114882553e-11,2223.5238621862,0.99513321235046,5.1138017431729e-11,4652.3116482834,2466.093323428,-1.3796340805894e-11,5156.3300922365,5730.6185098337,-6.0860043431305,-3.6946487536049e-13,2467.0312149102,4.3914593749611e-11,5172.4058743834
1.285,1939.2254230834,-1.0981562881263e-11,4038.3974211288,4482.3839532767,0.00041231520339124,1.1371153584711e-11,1940.3105780634,4.6079477473288e-11,4040.6634065767,1073.5981643665,2.4772698649367e-11,2229.1447164477,0.9986361474606,5.1081396924835e-11,4645.3272061336,2474.1939436045,-1.4011011101323e-11,5152.4584620735,5730.6225604423,-6.104383031032,2.2229228006931e-12,2475.1381854751,4.6593778314785e-11,5168.5358813252
1.286,1945.5621922825,-1.0440157419134e-11,4035.3372233614,4482.3827059529,0.00041235985366939,6.6383721436525e-12,1946.6547269442,4.1092369524459e-11,4037.6094532151,1080.6208864526,2.4890799057292e-11,2234.7435666096,1.002139074982,5.1134356731514e-11,4638.3251420566,2482.2884854866,-1.332029972434e-11,5148.5741058021,5730.6265823203,-6.122735595004,-3.8136607587169e-12,2483.2390963025,4.0230975668909e-11,5164.6531446441
1.287,1951.8941324004,-1.0545828099673e-11,4032.2670824115,4482.3814586485,0.00041239254716174,1.0714453196198e-11,1952.9940690381,4.519416004628e-11,4034.5455391082,1087.6611612672,2.4985300720731e-11,2240.3203574259,1.00564199491,5.1249341142395e-11,4631.3055252724,2490.3769290815,-1.3455179678767e-11,5144.677032965,5730.6305755094,-6.1410619898041,1.3860110975594e-12,2491.3339273608,4.5464473765605e-11,5160.7576738292
1.288,1958.2212278348,-1.0380585280245e-11,4029.1870058995,4482.3802113629,0.00041241326795216,4.5879376686653e-12,1959.3285887058,3.9141708103874e-11,4031.4716718214,1094.7189194169,2.5180586999199e-11,2245.8750338685,1.0091449072407,5.1200575897081e-11,4624.2684251745,2498.4592544114,-1.3244398633372e-11,5140.7672531363,5730.6345400501,-6.1593621701836,-6.4303081089012e-12,2499.4226586325,3.7742362620635e-11,5156.8494783998
1.289,1964.5434629957,-1.073778045646e-11,4026.0970014703,4482.3789640956,0.00041242208561698,1.0704559634533e-11,1965.6582703199,4.5268338990517e-11,4028.3878589443,1101.7940913358,2.5138395271657e-11,2251.4075411273,1.0126478119728,5.1137053359157e-11,4617.2139113286,2506.5354415134,-1.3700183348897e-11,5136.8447759216,5730.6384759829,-6.1776360908482,1.3749817256992e-12,2507.5052701151,4.5559376583848e-11,5152.9285679067
1.29,1970.860822305,-1.021051299066e-11,4022.9970767929,4482.3777168474,0.00041241890573929,4.6051201046948e-12,1971.9830982656,3.9027208981884e-11,4025.2941080926,1108.8866072861,2.5449720239198e-11,2256.9178246112,1.0161507091078,5.1206537707987e-11,4610.1420534726,2514.6054704398,-1.3027485340489e-11,5132.9096109578,5730.6423833502,-6.1958837067812,-6.4112075023881e-12,2515.5817418216,3.7596455896433e-11,5148.9949519337
1.291,1977.1732901969,-1.005037893187e-11,4019.8872395613,4482.376469618,0.00041240372627271,1.0064916348279e-11,1978.3030569396,4.4254232656887e-11,4022.1904269054,1115.9963973592,2.5511832880618e-11,2262.4058299485,1.0196535986393,5.1430712987022e-11,4603.0529215151,2522.6693212579,-1.2823237263704e-11,5128.9617679132,5730.646262193,-6.2141049729116,5.5785150804288e-13,2523.6520537796,4.4265723031511e-11,5145.0486400948
1.292,1983.4808511175,-1.0315187939924e-11,4016.7674974936,4482.3752224076,0.00041237650992798,7.3195720318164e-12,1984.6181307506,4.1765299985813e-11,4019.0768230465,1123.1233914755,2.5623600897334e-11,2267.8715029873,1.0231564805653,5.0945813540038e-11,4595.9465855354,2530.7269740503,-1.3161144049589e-11,5125.0012564873,5730.6501125528,-6.2322998442779,-2.9466060667838e-12,2531.7161860319,4.1090196783305e-11,5141.0896420358
1.293,1989.7834895253,-1.0708269340687e-11,4013.6378583322,4482.3739752154,0.00041233724073209,4.5818769785211e-12,1990.9283041194,3.9196271228725e-11,4015.9533042038,1130.2675193861,2.5605634149453e-11,2273.3147897963,1.0266593548832,5.0931825163608e-11,4588.8231157827,2538.7784089148,-1.3662732403774e-11,5121.028086411,5730.6539344704,-6.2504682759552,-6.4387167472701e-12,2539.7741186359,3.7812459326853e-11,5137.1179674329
1.294,1996.0811898908,-1.0446050274782e-11,4010.4983298443,4482.3727280431,0.00041228589969933,4.5948722257605e-12,1997.2335614795,3.9101665481878e-11,4012.8198780913,1137.428710673,2.5689269071358e-11,2278.735636665,1.0301622215939,5.0965758523203e-11,4581.6825826749,2546.8236059645,-1.3328225675902e-11,5117.0422674463,5730.6577279892,-6.2686102230921,-6.4230049230674e-12,2547.8258316657,3.7691847039334e-11,5133.1336259963
1.295,2002.373936697,-1.0792332305609e-11,4007.3489198209,4482.3714808877,0.00041222253628348,1.1378096815423e-11,2003.5338872748,4.5981816011037e-11,4009.6765524437,1144.6068947495,2.5762480690417e-11,2284.1339901046,1.033665080692,5.079042221523e-11,4574.5250567985,2554.8625453277,-1.377010311332e-11,5113.0438093868,5730.6614931473,-6.2867256408078,2.2347705283532e-12,2555.8713052077,4.6470482410049e-11,5129.1366274624
1.296,2008.6617144389,-1.0197504299314e-11,4004.189636078,4482.3702337524,0.00041214699774628,7.323575773599e-12,2009.829265964,4.1729040362037e-11,4006.5233350256,1151.8020008615,2.5920148622946e-11,2289.5097968481,1.0371679321758,5.1054898156377e-11,4567.3506089077,2562.8952071482,-1.3011199756496e-11,5109.0327220568,5730.6652299904,-6.3048144845548,-2.9399716168499e-12,2563.9105193672,4.104437536373e-11,5125.126981606
1.297,2014.9445076241,-1.0098095970523e-11,4001.0204864553,4482.3689866349,0.00041205941442968,6.655710271114e-12,2016.1196820157,4.0904025826183e-11,4003.3602336207,1159.013958088,2.6111615907681e-11,2294.8630038513,1.0406707760425,5.1185924422603e-11,4560.1593099235,2570.9215715851,-1.2884415756531e-11,5105.0090153123,5730.6689385574,-6.3228767094806,-3.7898308623274e-12,2571.9434542617,3.9991830159958e-11,5121.1046982264
1.298,2021.2223007725,-1.0204774525402e-11,3997.8414788172,4482.3677395371,0.00041195958908702,1.276818884996e-11,2022.4051199123,4.7092815758099e-11,4000.1872560414,1166.2426953414,2.5971532650187e-11,2300.1935582929,1.0441736122921,5.0982210206968e-11,4552.9512309334,2578.9416188133,-1.302056379382e-11,5100.9726990402,5730.6726188925,-6.3409122712243,4.0080881322235e-12,2579.9700900262,4.7888426731035e-11,5117.0697871597
1.299,2027.4950784163,-1.01882148551e-11,3994.6526210523,4482.3664924574,0.00041184767218283,1.0046922495344e-11,2028.6855641472,4.4400393518079e-11,3997.0044101209,1173.4881413689,2.6191757963867e-11,2305.5014075753,1.0476764409215,5.1016600232517e-11,4545.7264431902,2586.9553290227,-1.2999490373033e-11,5096.9237831585,5730.6762710356,-6.3589211250401,5.3595409360563e-13,2587.9904068096,4.4453183755538e-11,5113.0222582686
1.3,2033.7628251002,-1.072622199394e-11,3991.4539210735,4482.365245396,0.00041172354815444,1.2068168079443e-11,2034.9609992271,4.6603203934792e-11,3993.8117037186,1180.7502247526,2.5966418902221e-11,2310.7864993251,1.0511792619266,5.0674475900181e-11,4538.4850181118,2594.9626824193,-1.3686010658098e-11,5092.8622776164,5730.6798950291,-6.3769032265914,3.1145671978983e-12,2596.0043847767,4.7263967913047e-11,5108.9621214495
1.301,2040.0255253814,-1.0722566931576e-11,3988.2453868178,4482.3639983535,0.0004115872161492,1.4110714333104e-11,2041.2314096707,4.8624820316034e-11,3990.6091447184,1188.0288739105,2.6047803887777e-11,2316.0487813933,1.054682075307,5.0667205674093e-11,4531.2270272801,2602.9636592244,-1.368141017144e-11,5088.7881923944,5730.6834909156,-6.3948585314612,5.7195095014284e-12,2604.0120041084,4.984356937604e-11,5104.88938663
1.302,2046.2831638297,-1.0831171029513e-11,3985.0270262466,4482.3627513293,0.00041143866866378,1.477697825214e-11,2047.4967800091,4.9400700977836e-11,3987.3967410275,1195.3240170971,2.6165043222337e-11,2321.2882018562,1.058184881059,5.0600420554991e-11,4523.9525424406,2610.958239675,-1.3820028454958e-11,5084.7015375037,5730.6870587366,-6.4127869953069,6.5717132256837e-12,2612.0132450004,5.0833697494423e-11,5100.8040637678
1.303,2052.5357250273,-1.0569198294341e-11,3981.7988473455,4482.3615043249,0.00041127783094907,7.9843150320447e-12,2053.7570947865,4.254433220649e-11,3984.1745005796,1202.6355824042,2.6296433129971e-11,2326.5047090158,1.0616876791817,5.0505153011138e-11,4516.6616355015,2618.9464040238,-1.3485806221736e-11,5080.6023229869,5730.6905985363,-6.4306885739398,-2.0946694899437e-12,2620.0080876652,4.2085382054302e-11,5096.7061628543
1.304,2058.7831935691,-1.0177532427935e-11,3978.5608581241,4482.3602573383,0.00041110476587392,8.0081215096672e-12,2060.0123385581,4.2325604392851e-11,3980.9424313288,1209.9634977616,2.6372901258676e-11,2331.6982514003,1.0651904696706,5.0645622244605e-11,4509.354378533,2626.9281325396,-1.2986115655034e-11,5076.4905589173,5730.6941103542,-6.4485632230561,-2.0634774271222e-12,2627.9965123287,4.1806407294342e-11,5092.5956939075
1.305,2065.0255540626,-1.0230908134568e-11,3975.3130666164,4482.3590103697,0.0004109194349553,1.4127137393932e-11,2066.2624958927,4.8446172420946e-11,3977.7005412562,1217.3076909377,2.6460903780612e-11,2336.8687777645,1.0686932525269,5.0676151209378e-11,4502.0308437666,2634.9034055065,-1.3054262532064e-11,5072.3662553994,5730.6975942333,-6.4664108985515,5.7437206033017e-12,2635.9784992342,4.961617705232e-11,5088.4726669794
1.306,2071.262791128,-1.0609384898386e-11,3972.0554808804,4482.3577634206,0.00041072177839396,5.2816522856658e-12,2072.5075513721,3.9695437908938e-11,3974.4488383678,1224.6680895404,2.6466631403849e-11,2342.0162370904,1.0721960277438,5.062001815978e-11,4494.6911035944,2642.8722032248,-1.3537244242245e-11,5068.2294225686,5730.7010502176,-6.4842315564192,-5.5442568938635e-12,2643.9540286412,3.8450589066874e-11,5084.3370921543
1.307,2077.4948893983,-1.0214582651935e-11,3968.7881089983,4482.3565164896,0.00041051180119211,7.3328500389824e-12,2078.7474895894,4.1616055653643e-11,3971.1873306913,1232.0446210175,2.6719499659697e-11,2347.1405785877,1.0756987953214,5.0657483850053e-11,4487.3352305686,2650.8345060106,-1.3033542994867e-11,5064.0800705914,5730.7044783478,-6.5020251526299,-2.9264737334833e-12,2651.9230808231,4.0901359122519e-11,5080.1889795444
1.308,2083.721833519,-1.0811081196938e-11,3965.5109590765,4482.3552695766,0.00041028952119859,1.5460937217993e-11,2084.982295151,5.0035928525483e-11,3967.9160262798,1239.4372126577,2.6790599252924e-11,2352.2417516944,1.0792015552595,5.0333952717613e-11,4479.9632974003,2658.790294196,-1.379471190055e-11,5059.918209665,5730.7078786664,-6.5197916432066,7.4434711866411e-12,2659.8856360705,5.1645096619396e-11,5076.0283392943
1.309,2089.9436081485,-1.0641924841348e-11,3962.2240392453,4482.3540226825,0.00041005486002632,1.2750064892764e-11,2091.2119526765,4.7231357713784e-11,3964.6349332115,1246.8457915914,2.6930700291333e-11,2357.3197060769,1.0827043075532,5.0455890333867e-11,4472.5753769593,2666.7395481292,-1.3578929647373e-11,5055.7438500176,5730.7112512173,-6.5375309843659,3.986592306271e-12,2667.84167469,4.8066636174765e-11,5071.8551815808
1.31,2096.1601979583,-1.0776888062503e-11,3958.9273576591,4482.3527758066,0.00040980783387567,1.4786408208955e-11,2097.4364467972,4.9292353185293e-11,3961.3440595874,1254.2702847911,2.689431728535e-11,2362.3743916312,1.0862070521987,5.0375713583212e-11,4465.1715422731,2674.6822481742,-1.3751201566325e-11,5051.5570019084,5730.7145960422,-6.555243132266,6.5851065919609e-12,2675.7911770033,5.0696583216159e-11,5067.6695166097
1.311,2102.3715876323,-1.0225445490342e-11,3955.6209224966,4482.3515289492,0.00040954835992579,1.4138554476489e-11,2103.6557621578,4.8337255639103e-11,3958.0434135333,1261.7106190722,2.7077503867573e-11,2367.4057584828,1.0897097891959,5.0433389669341e-11,4457.751866526,2682.6183747114,-1.3047597724469e-11,5047.3576756271,5730.7179131843,-6.57292804326,5.7592303322196e-12,2683.7341233487,4.9478011965309e-11,5063.4713546191
1.312,2108.5777618677,-1.0569399522264e-11,3952.3047419602,4482.3502821102,0.00040927652361233,1.276326310265e-11,2109.8698834156,4.7137937216751e-11,3954.7330031987,1269.166721094,2.7066574242313e-11,2372.4137569871,1.0932125185435,5.0462618892549e-11,4450.3164230589,2690.5479081371,-1.3486534805596e-11,5043.1458814947,5730.7212026861,-6.5905856735547,4.0020205031854e-12,2691.6704940803,4.7947801978809e-11,5059.2607058772
1.313,2114.7787053743,-1.0463224037194e-11,3948.9788242764,4482.3490352902,0.00040899218254253,1.276931164973e-11,2116.0787952411,4.7088575226562e-11,3951.4128367582,1276.63851736,2.7206825984824e-11,2377.3983377307,1.0967152402354,5.031060550803e-11,4442.8652853681,2698.470828864,-1.3351118821614e-11,5038.9216298625,5730.7244645914,-6.6082159797158,4.0089199321303e-12,2699.6002695687,4.7884939936849e-11,5055.0375806842
1.314,2120.9744028751,-1.0391288524092e-11,3945.6431776959,4482.347788488,0.00040869542579003,1.0730461224434e-11,2122.2824823168,4.502174457896e-11,3948.0829224087,1284.1259342191,2.7393226142286e-11,2382.3594515309,1.100217954274,5.0406498853378e-11,4435.3985271048,2706.387117321,-1.325936929697e-11,5034.684931113,5730.7276989417,-6.6258189180752,1.4085980645784e-12,2707.5234301996,4.524776430273e-11,5050.8019893691
1.315,2127.1648391061,-1.0610436140812e-11,3942.2978104931,4482.3465417046,0.00040838614461336,1.1396711265682e-11,2128.480929339,4.5856850868636e-11,3944.7432683727,1291.6288978659,2.7447992229784e-11,2387.297049437,1.103720660652,5.0095087800184e-11,4427.9162220744,2714.2967539533,-1.353904835466e-11,5030.4357956592,5730.7309057813,-6.6433944452926,2.255835275522e-12,2715.4399563761,4.6313489501792e-11,5046.553942294
1.316,2133.3499988163,-1.0472935019212e-11,3938.9427309665,4482.3452949389,0.0004080644290525,1.2092557857835e-11,2134.6741210161,4.636602430122e-11,3941.3938828955,1299.1473343415,2.7604456047381e-11,2392.2110827301,1.1072233593702,5.0235924361347e-11,4420.4184442356,2722.1997192223,-1.3363643525111e-11,5026.1742339449,5730.7340851519,-6.6609425178355,3.1458980385979e-12,2723.3498285165,4.696333513049e-11,5042.2934498496
1.317,2139.5298667678,-1.0159387220376e-11,3935.5779474385,4482.3440481923,0.00040773014853812,6.6726112482596e-12,2140.8620420704,4.0755807149268e-11,3938.0347742481,1306.6811695347,2.779498723196e-11,2397.1015029241,1.1107260504279,5.03360022934e-11,4412.9052676998,2730.0959936061,-1.2963609352656e-11,5021.9002564446,5730.7372370982,-6.6784630925253,-3.7678688294407e-12,2731.2530270564,3.9804662604198e-11,5038.0205224601
1.318,2145.7044277357,-1.0585629595106e-11,3932.2034682553,4482.3428014637,0.00040738334234902,7.9990523753348e-12,2147.0446772365,4.239976425513e-11,3934.6659507237,1314.2303291819,2.7625071501169e-11,2401.9682617659,1.1142287338169,4.9920650512653e-11,4405.3767667303,2737.9855575989,-1.3507559654125e-11,5017.6138736633,5730.7403616625,-6.6959561260311,-2.075071017793e-12,2739.1495324468,4.1902516612763e-11,5033.7351705779
1.319,2151.8736665086,-1.0749789947084e-11,3928.8193017872,4482.3415547526,0.00040702400661985,1.2079234747858e-11,2153.222011262,4.6483619037252e-11,3931.2874206396,1321.7947388687,2.7742063854475e-11,2406.811311236,1.1177314095409,4.9996597573793e-11,4397.8330157416,2745.8683917117,-1.3717072616659e-11,5013.315096137,5730.7434588871,-6.7134215751457,3.1289862194306e-12,2747.039325155,4.711378205971e-11,5029.4374046864
1.32,2158.0375678879,-1.0462837193859e-11,3925.4254564282,4482.3403080608,0.00040665206762469,1.2779727796841e-11,2159.3940289087,4.6989884639609e-11,3927.8991923394,1329.37432403,2.8032056276911e-11,2411.6306035489,1.1212340775926,5.0062075578755e-11,4390.2740892989,2753.7444764718,-1.335095228816e-11,5009.0039344321,5730.7465288179,-6.7308593968228,4.0225713385245e-12,2754.9223856664,4.7759921451701e-11,5025.1272353027
1.321,2164.1961166885,-1.026706150653e-11,3922.0219405962,4482.3390613869,0.00040626753343531,1.0732988716539e-11,2165.56071495,4.49920903485e-11,3924.5012741877,1336.9690099511,2.8113273861652e-11,2416.4260911537,1.1247367379728,5.0016504393041e-11,4382.7000621167,2761.6137924233,-1.3101186802089e-11,5004.6803991454,5730.7495714964,-6.7482695479742,1.4127015529608e-12,2762.7986944807,4.5210767855158e-11,5020.8046729707
1.322,2170.3492977385,-1.0300718611411e-11,3918.6087627329,4482.3378147315,0.0004058704084855,1.2777175584927e-11,2171.7220541736,4.6985596403176e-11,3921.0936745746,1344.5787217681,2.8272249125161e-11,2421.1977267344,1.1282393906776,5.006486761619e-11,4375.111009059,2769.4763201268,-1.3144190597059e-11,5000.3445009047,5730.7525869669,-6.7656519855893,4.0211453958272e-12,2770.6682321155,4.7754708607656e-11,5016.4697282672
1.323,2176.4970958793,-1.0377424614072e-11,3915.1859313038,4482.3365680936,0.00040546066617253,2.5834026758098e-12,2177.8780313794,3.6767809716981e-11,3917.6764019128,1352.2033844691,2.8442342665108e-11,2425.9454632104,1.1317420357069,5.0136390265104e-11,4367.5070051375,2777.3320401597,-1.3242129615065e-11,4995.996250368,5730.7555752718,-6.7830066667603,-8.9877528162974e-12,2778.530979104,3.4716329203738e-11,5012.1224117981
1.324,2182.6394959656,-1.0179464909887e-11,3911.7534547983,4482.3353214746,0.00040503824021698,1.2791406822643e-11,2184.0286313818,4.685246374897e-11,3914.2494646412,1359.8429228945,2.8550311420572e-11,2430.669253737,1.1352446730535,5.018119383568e-11,4359.8881255119,2785.1809331159,-1.2989578163092e-11,4991.635658224,5730.7585364565,-6.8003335487066,4.0389744500324e-12,2786.3869159972,4.7585090815622e-11,5007.7627342023
1.325,2188.7764828658,-1.0201443856328e-11,3908.3113417293,4482.3340748732,0.00040460314625079,1.1431421781394e-11,2190.1738390073,4.5508687096518e-11,3910.8128712197,1367.4972617381,2.8762975508301e-11,2435.3690517059,1.1387473027217,5.0104187292177e-11,4352.2544454884,2793.0229796063,-1.3017663336168e-11,4987.2627351917,5730.761470563,-6.8176325886029,2.3011917892057e-12,2794.2360233615,4.5870460207986e-11,5003.3907061464
1.326,2194.9080414612,-1.0427707308747e-11,3904.8596006337,4482.3328282905,0.00040415536017235,1.5497085385785e-11,2196.3136390966,4.969677057029e-11,3907.3666301346,1375.1663255474,2.8733807867776e-11,2440.0448107458,1.1422499247038,5.001022556142e-11,4344.6060405193,2800.8581602587,-1.3306432344873e-11,4982.8774920208,5730.7643776366,-6.8349037437501,7.4909288841352e-12,2802.0782817814,5.1214892136248e-11,4999.0063383304
1.327,2201.034156647,-1.038153590871e-11,3901.398240072,4482.3315817258,0.00040369486731606,1.3451515509105e-11,2202.4480165031,4.7705353122679e-11,3903.9107498941,1382.8500387249,2.8926998383444e-11,2444.6964847224,1.1457525389995,5.0048560348154e-11,4336.9429862022,2808.6864557175,-1.3247569707886e-11,4978.4799394912,5730.7672577201,-6.8521469715011,4.8809584846099e-12,2809.9136718567,4.8673821483741e-11,4994.6096414823
1.328,2207.1548133316,-1.0209517259385e-11,3897.9272686284,4482.3303351785,0.00040322170644913,1.4142079000912e-11,2208.5769560936,4.8305008864408e-11,3900.4452390303,1390.5483255283,2.9109902856261e-11,2449.3240277392,1.1492551456039,5.0192265274585e-11,4329.2653582793,2816.5078466442,-1.3028120249281e-11,4974.0700884134,5730.7701108567,-6.8693622292116,5.7606007637656e-12,2817.7421742046,4.9439157628894e-11,4990.2006263612
1.329,2213.2699964373,-1.0525339280698e-11,3894.4466949108,4482.3290886503,0.00040273572687965,5.9672679124378e-12,2214.7004427494,4.0325664682483e-11,3896.9701061013,1398.2611100718,2.9035675339767e-11,2453.927394138,1.1527577445186,5.0090375857542e-11,4321.5732326365,2824.3223137173,-1.3431193657265e-11,4969.6479496281,5730.7729370926,-6.8865494745506,-4.6718484116026e-12,2825.56376946,3.9256931906595e-11,4985.779303759
1.33,2219.3796908996,-1.0229334740375e-11,3890.9565275508,4482.3278421405,0.00040223700125352,1.0733723805612e-11,2220.818461364,4.4994205843779e-11,3893.4853596865,1405.9883163264,2.9192107932341e-11,2458.5065384993,1.1562603357405,4.986845224958e-11,4313.8666853027,2832.1298376323,-1.3053506192628e-11,4965.2135340066,5730.775736471,-6.9037086649682,1.4110843570003e-12,2833.3784382738,4.5214534373506e-11,4981.3456844956
1.331,2225.4838816678,-1.0250276322177e-11,3887.4567752036,4482.3265956477,0.0004017254810833,1.6850926903844e-11,2226.9309968443,5.1107240401499e-11,3889.9910083888,1413.7298681206,2.9071459215629e-11,2463.0614156424,1.1597629192637,4.9817551559667e-11,4306.1457924492,2839.9303991016,-1.3080311139779e-11,4960.7668524503,5730.7785090342,-6.9208397581353,9.2180876647141e-12,2841.1861613131,5.3015495205672e-11,4976.8997794203
1.332,2231.5825537048,-1.0272208431084e-11,3883.9474465479,4482.325349173,0.00040120119098219,9.3882783491761e-12,2233.0380341117,4.3510384531431e-11,3886.4870608366,1421.4856891418,2.9238928552638e-11,2467.5919806265,1.1632654950895,4.9924240956567e-11,4298.4106303889,2847.723978855,-1.3108323454469e-11,4956.307915891,5730.7812548276,-6.9379427117058,-3.0472586259878e-13,2848.9869192635,4.3321257171824e-11,4972.4415994156
1.333,2237.6756919873,-1.0241821279955e-11,3880.428550286,4482.3241027165,0.00040066407069617,1.551012313375e-11,2239.139558101,4.9562842111689e-11,3882.9735256813,1429.2557029363,2.942434533873e-11,2472.0981887505,1.1667680632129,5.000083333484e-11,4290.6612755752,2855.5105576393,-1.3069611365379e-11,4951.8367352907,5730.7839738958,-6.9550174835066,7.5096920869322e-12,2856.7806928272,5.1044973803371e-11,4967.9711553933
1.334,2243.7632815054,-1.0191391133785e-11,3876.9000951441,4482.322856278,0.00040011408873397,8.0264796545326e-12,2245.23555376,4.2174018183988e-11,3879.4504115976,1437.0398329105,2.9504899825422e-11,2476.5799955538,1.1702706236336,5.012583317171e-11,4282.8978046018,2863.2901162185,-1.3005284349443e-11,4947.3533216418,5730.7866662828,-6.9720640313994,-2.0425098244681e-12,2864.5674627231,4.1616123307858e-11,4963.4884582952
1.335,2249.8453072635,-9.5960999563216e-12,3873.3620898716,4482.3216098585,0.00039955123730806,1.3484577170153e-11,2251.3260060513,4.7389036705175e-11,3875.917727285,1444.8380023314,2.9801547514474e-11,2481.0373568168,1.1737731763473,5.0179408371542e-11,4275.1202942017,2871.0626353739,-1.2245704450464e-11,4942.8576859668,5730.7893320342,-6.9890823132867,4.925062527944e-12,2872.3472096882,4.8271224257351e-11,4958.9935190949
1.336,2255.9217542792,-9.8337327864018e-12,3869.8145432414,4482.3203634553,0.00039897549743273,8.7146349164735e-12,2257.4108999489,4.2769060428632e-11,3872.3754814633,1452.6501343275,2.9863251194834e-11,2485.4702285609,1.1772757213524,5.0070899683396e-11,4267.3288212461,2878.828095904,-1.2548975747428e-11,4938.3498393184,5730.7919711911,-7.0060722871481,-1.1638186074581e-12,2880.1199144743,4.2375688028007e-11,4954.4863487919
1.337,2261.9926075843,-9.9593198271686e-12,3866.2574640501,4482.3191170715,0.00039838692259764,5.3080547769702e-12,2263.4902204437,3.9446785681657e-11,3868.823682881,1460.4761518898,2.9892298272077e-11,2489.8785670496,1.180778258646,4.9968798196409e-11,4259.5234627444,2886.5864786249,-1.2709278074396e-11,4933.8297927796,5730.7945838019,-7.0230339109519,-5.5116440925151e-12,2887.8855578542,3.8136150487533e-11,4949.9669584226
1.338,2268.0578522245,-1.0009649359377e-11,3862.6908611179,4482.3178707047,0.00039778537131951,1.279179973751e-11,2269.5639525374,4.683936832145e-11,3865.2623403053,1468.3159778719,2.9960151547159e-11,2494.2623287882,1.1842807882273,5.0018429068738e-11,4251.7042958426,2894.3377643699,-1.2773570395863e-11,4929.2975574632,5730.7971699082,-7.0399671429736,4.0401002855683e-12,2895.6441206143,4.7570181301027e-11,4945.4353590475
1.339,2274.1174732591,-9.9838123879259e-12,3859.114743288,4482.3166243562,0.0003971709426196,1.9604848994215e-11,2275.6320812475,5.3501728221328e-11,3861.6914625301,1476.1695349914,2.9967539300763e-11,2498.6214705249,1.1877833100904,4.9931425747524e-11,4243.8713978231,2902.0819339898,-1.274065575263e-11,4924.7531445126,5730.7997295562,-7.0568719412601,1.2734794555685e-11,2903.3955835606,5.6072404532037e-11,4940.8915617613
1.34,2280.1714557617,-9.8975376505717e-12,3855.5291194274,4482.315378025,0.00039654350189267,1.959669189075e-11,2281.6945916041,5.3592432575078e-11,3858.111058371,1484.0367458305,2.9979448611106e-11,2502.9559492506,1.1912858242377,4.992919836258e-11,4236.024846104,2909.818968353,-1.2630615303655e-11,4920.1965651008,5730.8022627893,-7.0737482642213,1.2723250838315e-11,2911.1399275153,5.6188301407467e-11,4936.3355776863
1.341,2286.2197848196,-1.0517709966851e-11,3851.9339984265,4482.3141317125,0.00039590315788018,8.6936863957776e-12,2287.7514686524,4.29562618115e-11,3854.5211366691,1491.9175328364,3.0047090683605e-11,2507.2657222,1.1947883306625,4.9659283629655e-11,4228.1647182377,2917.5488483452,-1.3422086359016e-11,4915.6278304312,5730.8047696542,-7.0905960700332,-1.1907506231035e-12,2918.8771333196,4.2615115863204e-11,4931.7674179779
1.342,2292.2624455343,-1.0063800487403e-11,3848.3293891989,4482.312885417,0.00039524976193661,1.0753889098658e-11,2293.80269745,4.4808215297898e-11,3850.9217062863,1499.8118183227,3.0164988996245e-11,2511.5507468513,1.1982908293646,4.9693768197634e-11,4220.2910919108,2925.2715548698,-1.2842896884857e-11,4911.0469517371,5730.8072501935,-7.1074153172618,1.4396392064575e-12,2926.6071818298,4.497860547556e-11,4927.1870938179
1.343,2298.2994230212,-1.0129942024095e-11,3844.7153006818,4482.3116391402,0.00039458342024545,1.8905464433533e-11,2299.8482630702,5.2999862745068e-11,3847.3127761108,1507.7195244695,3.0251630627615e-11,2515.8109809274,1.2017933203403,4.9752895813632e-11,4212.4040449431,2932.9870688481,-1.2927339754221e-11,4906.4539402818,5730.8097044543,-7.1242059642271,1.184183740649e-11,2934.3300539223,5.5432566956753e-11,4922.594616422
1.344,2304.33070241,-1.070084472421e-11,3841.0917418356,4482.3103928808,0.00039390399501826,1.4798509639924e-11,2305.8881505985,4.9145387846089e-11,3843.6943550519,1515.6405733247,3.0217962247031e-11,2520.0463823954,1.2052958035892,4.94539626264e-11,4204.5036552866,2940.6953712186,-1.3655951369707e-11,4901.8488073586,5730.81213248,-7.1409679696262,6.6022612724148e-12,2942.0457304889,5.0513778489941e-11,4917.9899970329
1.345,2310.3562688444,-1.0324206767276e-11,3837.458721644,4482.3091466389,0.00039321153963101,9.3805132932168e-12,2311.9223451353,4.3542798273261e-11,3840.0664520431,1523.5748868045,3.0393719659128e-11,2524.256909468,1.2087982791058,4.9478875423919e-11,4196.5900010251,2948.396442938,-1.3175349700134e-11,4897.2315642907,5730.8145343154,-7.1577012919823,-3.130967707321e-13,2949.75419244,4.3364058437828e-11,4913.3732469244
1.346,2316.3761074821,-1.0240171557929e-11,3833.8162491142,4482.3079004154,0.00039250604748986,1.617029600498e-11,2317.9508317957,5.0411091533781e-11,3836.4290760425,1531.5223866942,3.050419292161e-11,2528.442520603,1.2123007468906,4.944586797298e-11,4188.6631603733,2956.0902649805,-1.3068147258766e-11,4892.6022224313,5730.8169100072,-7.1744058899703,8.3525122582251e-12,2957.4554207042,5.2129311284288e-11,4908.7443774017
1.347,2322.3902034954,-1.0263286748247e-11,3830.1643332765,4482.3066542089,0.00039178743782031,1.8889217447138e-11,2323.9735957073,5.3131000033596e-11,3832.7822360292,1539.4829946491,3.0665128422647e-11,2532.6031745045,1.2158032069375,4.9381626825856e-11,4180.723211676,2963.7768183381,-1.3097706946796e-11,4887.9607931634,5730.8192595987,-7.1910817224255,1.1821242335702e-11,2965.1493962263,5.5600538062528e-11,4904.1033997972
1.348,2328.3985420704,-9.962754579651e-12,3826.5029831845,4482.3054080209,0.00039105571750042,1.0071363881758e-11,2329.9906220135,4.4149246324759e-11,3829.1259410083,1547.4566321949,3.0823805313718e-11,2536.7388301227,1.2193056592467,4.9570689567013e-11,4172.7702334072,2971.4560840209,-1.2714222036303e-11,4883.3072878999,5730.8215831367,-7.207728748147,5.6717824881147e-13,2972.8360999706,4.4138314531095e-11,4899.4503254764
1.349,2334.4011084079,-9.9903592343242e-12,3822.8322079151,4482.3041618511,0.00039031089357877,1.0743926581736e-11,2336.0018958711,4.4884464634604e-11,3825.4602000066,1555.4432207292,3.0896969878402e-11,2540.8494466547,1.2228081038177,4.92645290881e-11,4164.8043041695,2979.1280430568,-1.274948896457e-11,4878.6417180836,5730.8238806665,-7.224346926002,1.4265112528722e-12,2980.5155129184,4.507671102702e-11,4894.785165833
1.35,2340.3978877226,-9.9054410507282e-12,3819.1520165684,4482.3029156974,0.00038955296201948,1.2117670582235e-11,2342.00740245,4.6131180906489e-11,3821.7850220727,1563.4426815214,3.1051067099497e-11,2544.9349835446,1.2263105406419,4.9439008442675e-11,4156.8255026932,2986.7926764915,-1.2641169361283e-11,4873.964095187,5730.8261522307,-7.240936214941,3.1777150355516e-12,2988.1876160675,4.6667875727019e-11,4890.1079322884
1.351,2346.3888652438,-1.0126694621748e-11,3815.4624182675,4482.3016695622,0.00038878186012425,1.2110704800117e-11,2348.0071269365,4.6188514818413e-11,3818.1004162824,1571.4549357141,3.091576343886e-11,2548.9954004842,1.2298129697234,4.9430336560019e-11,4148.833907836,2994.449965389,-1.2923589282066e-11,4869.2744307125,5730.8283978776,-7.2574965740657,3.17267869962e-12,2995.8523904362,4.6741179069582e-11,4885.4186362987
1.352,2352.3740262151,-1.0027888242004e-11,3811.763422159,4482.3004234446,0.00038799759312269,7.3485302044818e-12,2354.0010545299,4.1457112482518e-11,3814.4063917318,1579.4799043237,3.1087746960035e-11,2553.0306574131,1.2333153910529,4.9253355734191e-11,4140.8295985812,3002.0998908312,-1.2797526927066e-11,4864.572736192,5730.8306176518,-7.2740279624615,-2.905215564647e-12,3003.5098170591,4.0703070688236e-11,4880.7172893467
1.353,2358.3533558946,-9.5218260359742e-12,3808.0550374124,4482.2991773448,0.00038720010235238,1.2121879455068e-11,2359.9891704439,4.6065790505062e-11,3810.7029575413,1587.5175082411,3.1223401902175e-11,2557.0407145195,1.2368178046363,4.9399925122762e-11,4132.812654038,3009.7424339182,-1.2151751827005e-11,4859.8590231875,5730.8328115988,-7.2905303393628,3.1863331417803e-12,3011.1598769892,4.658481283018e-11,4876.0039029456
1.354,2364.3268395547,-9.6223983642174e-12,3804.3372732205,4482.2979312631,0.00038638938059421,1.348156135339e-11,2365.971459907,4.7407517581727e-11,3806.9901228544,1595.5676682326,3.1274201110765e-11,2561.02553224,1.240320210465,4.9217802576551e-11,4124.7831534401,3017.3775757681,-1.2280149119803e-11,4855.1333032903,5730.8349797649,-7.307003664015,4.9234115048757e-12,3018.8025512977,4.8297271564024e-11,4871.2784886391
1.355,2370.2944624825,-9.5061944427322e-12,3800.610138799,4482.2966851982,0.00038556550646263,1.6884956540592e-11,2371.9479081611,5.0792320436394e-11,3803.2678968368,1603.6303049405,3.144496728974e-11,2564.9850712607,1.2438226085371,4.9246062089336e-11,4116.741176145,3025.0052975173,-1.2131910059887e-11,4850.3955881217,5730.837122194,-7.3234478956209,9.2649026471603e-12,3026.4378210731,5.2617145016032e-11,4866.5410579985
1.356,2376.2562099795,-9.8392110431389e-12,3796.8736433869,4482.295439151,0.00038472834523873,1.9090293582047e-12,2377.9185004636,3.6007431845203e-11,3799.5362886788,1611.7053388842,3.1302078117024e-11,2568.9192925167,1.247324998853,4.9161034618161e-11,4108.6868016335,3032.6255803206,-1.2556948536524e-11,4845.6458893325,5730.839238933,-7.3398629937306,-9.8448128989237e-12,3034.0656674228,3.3748473633743e-11,4861.7916226274
1.357,2382.2120673617,-9.8420646632569e-12,3793.1277962461,4482.2941931206,0.00038387797451378,9.3893955110946e-12,2383.8832220855,4.3479724161355e-11,3795.7953075926,1619.7926904605,3.1638283139179e-11,2572.8281571936,1.2508273814059,4.9008239307036e-11,4100.6201095086,3040.2384053507,-1.2560660844763e-11,4840.8842186029,5730.8413300265,-7.3562489176936,-3.021155374483e-13,3041.6860714719,4.3284905607704e-11,4857.030194157
1.358,2388.1620199598,-9.6290909273877e-12,3789.3726066615,4482.2929471095,0.00038301422819131,6.6912989905854e-12,2389.842058314,4.0567614805614e-11,3792.0449628165,1627.892279945,3.1716603302034e-11,2576.7116267269,1.2543297561972,4.9261685876323e-11,4092.5411794947,3047.843753799,-1.2288885187228e-11,4836.1105876431,5730.8433955238,-7.3726056272472,-3.7425236520949e-12,3049.2990143655,3.9568493880732e-11,4852.2567842522
1.359,2394.1060531192,-9.4437756226196e-12,3785.6080839412,4482.291701115,0.00038213719813029,1.2132370195289e-11,2395.7949944482,4.5964725515352e-11,3788.285263607,1636.0040274924,3.1828211507351e-11,2580.5696628028,1.2578321232219,4.925235219666e-11,4084.4500914372,3055.4416068751,-1.2052435438559e-11,4831.3250081925,5730.845435467,-7.3889330818623,3.2000994736048e-12,3056.9044772639,4.6456595081262e-11,4847.4714046015
1.36,2400.0441521998,-9.4636069813969e-12,3781.8342374161,4482.2904551377,0.00038124690735231,1.1451448296562e-11,2401.7420158035,4.5247809405541e-11,3784.5162192469,1644.1278531374,3.1858707512378e-11,2584.4022273587,1.2613344824788,4.9357793026339e-11,4076.3469253011,3063.0319458072,-1.2077804034671e-11,4826.5274920202,5730.8474499032,-7.4052312411775,2.3361239158415e-12,3064.5024413477,4.5541770007929e-11,4842.6740669269
1.361,2405.9763025763,-9.1446156202935e-12,3778.0510764402,4482.2892091779,0.00038034327872083,1.0782723238595e-11,2407.6831077097,4.4508094258766e-11,3780.7378390419,1652.2636767957,3.2059696911113e-11,2588.2092825833,1.2648368339639,4.9438925175949e-11,4068.2317611709,3070.6147518419,-1.167074423214e-11,4821.7180509247,5730.8494388787,-7.4215000650291,1.4799862724235e-12,3072.0928878156,4.4597825432646e-11,4837.8647829795
1.362,2411.9024896382,-9.2398172446551e-12,3774.2586103904,4482.2879632363,0.0003794262389647,8.0719766808179e-12,2413.6182555113,4.1737646325202e-11,3776.9501323205,1660.4114182645,3.220344477195e-11,2591.990790917,1.2683391776785,4.9383447851825e-11,4060.1046792493,3078.1900062441,-1.179228589776e-11,4816.8966967341,5730.8514024404,-7.4377395133215,-1.9823266292351e-12,3079.675797885,4.1062145437337e-11,4833.0435645403
1.363,2417.8226987897,-9.1690058323657e-12,3770.4568486665,4482.2867173109,0.00037849589364214,9.4318420261474e-12,2419.5474445664,4.3096680737986e-11,3773.1531084326,1668.5709972234,3.226074702517e-11,2595.7467150527,1.271841513616,4.9358892841023e-11,4051.9657598566,3085.7576902977,-1.1701934560238e-11,4812.0634413057,5730.8533406323,-7.4539495458005,-2.4648815974415e-13,3087.2511527904,4.2796733171202e-11,4828.2104234173
1.364,2423.7369154498,-9.1868075646762e-12,3766.6458006911,4482.285471404,0.00037755210490786,8.7442292989737e-12,2425.4706602497,4.2484373224266e-11,3769.3467767542,1676.7423332354,3.2261557574714e-11,2599.4770179354,1.2753438417743,4.9200725958654e-11,4043.8150834298,3093.3177853048,-1.1724718418371e-11,4807.2182965264,5730.8552535033,-7.4701301226017,-1.1224723407699e-12,3094.8189337869,4.2015381625238e-11,4823.3653714523
1.365,2429.6451250525,-9.2951722707735e-12,3762.8254759099,4482.284225514,0.00037659491300701,1.2826149430739e-11,2431.387887949,4.6517483007907e-11,3765.5311466813,1684.9253457474,3.22354794767e-11,2603.1816627633,1.2788461621514,4.9201801487209e-11,4035.6527305221,3100.8702725865,-1.1863055676686e-11,4802.3612743124,5730.8571410978,-7.4862812036973,4.0896014873171e-12,3102.3791221462,4.7162826595504e-11,4818.5084205125
1.366,2435.5473130464,-9.3505619913614e-12,3758.9958837912,4482.2829796415,0.00037562433948324,1.3507770423027e-11,2437.2991130677,4.7224535480034e-11,3761.7062276345,1693.119954091,3.2364565888399e-11,2606.8606129878,1.2823484747478,4.9179632588547e-11,4027.4787818017,3108.4151334824,-1.1933815047271e-11,4797.4923866093,5730.8590034629,-7.502402749164,4.9563365564498e-12,3109.9316991599,4.8065336866882e-11,4813.6395824968
1.367,2441.4434648953,-9.6639068275506e-12,3755.1570338264,4482.2817337866,0.00037464026047473,1.6877028420625e-11,2443.2043210237,5.0858705701734e-11,3757.872029057,1701.3260774835,3.227385242735e-11,2610.5138323137,1.2858507795542,4.8834808592801e-11,4019.2933180514,3115.952349351,-1.2333769422446e-11,4792.611645392,5730.8608406451,-7.5184947193319,9.2569628178107e-12,3117.4766461376,5.2703678660865e-11,4808.7588693331
1.368,2447.333566078,-1.0003978548334e-11,3751.3089355293,4482.2804879487,0.00037364275385698,1.8911234557495e-11,2449.1034972499,5.2892138585614e-11,3754.0285604141,1709.5436350287,3.2316427745621e-11,2614.1412847001,1.2893530765759,4.8724906054343e-11,4011.0964201672,3123.4819015694,-1.2767863155627e-11,4787.7190626646,5730.8626526902,-7.5345570743487,1.1856419058348e-11,3125.0139444075,5.5299063071723e-11,4803.8662929779
1.369,2453.2176020879,-9.9927288665924e-12,3747.451598437,4482.2792421284,0.00037263184037784,1.7562103681035e-11,2454.9966271942,5.1426074770128e-11,3750.1758311952,1717.7725457174,3.2477100869732e-11,2617.7429343603,1.2928553658034,4.8687269493808e-11,4002.8881691584,3131.0037715338,-1.2753544748056e-11,4782.8146504605,5730.8644396455,-7.5505897745099,1.0134677819185e-11,3132.5435753172,5.3428090510815e-11,4798.9618654183
1.37,2459.0955584339,-9.923072780138e-12,3743.5850321088,4482.2779963255,0.00037160729948482,1.9584590893462e-11,2460.8836963191,5.36580203013e-11,3746.313850912,1726.0127284285,3.2382355477645e-11,2621.3187457623,1.2963576472404,4.8638241004206e-11,3994.6686461461,3138.5179406591,-1.2664671394935e-11,4777.8984208425,5730.8662015575,-7.5665927804873,1.2714623191107e-11,3140.0655202326,5.6276846464171e-11,4794.04559867
1.371,2464.9674206397,-9.572134751501e-12,3739.7092461272,4482.2767505394,0.00037056933479107,1.7564578264073e-11,2466.7646901021,5.1454578878923e-11,3742.4426290983,1734.2641019298,3.2426301661143e-11,2624.8686836289,1.2998599208784,4.8856195131175e-11,3986.4379323624,3146.0243903793,-1.2216828243483e-11,4772.9703859023,5730.8679384719,-7.5825660524889,1.0138545385174e-11,3147.579760538,5.3464750422033e-11,4789.1175047774
1.372,2470.8331742442,-9.617622670488e-12,3735.8242500972,4482.2755047711,0.00036951776257865,4.6483242602258e-12,2472.6395940363,3.8557363465225e-11,3738.5621753123,1742.5265848784,3.2553168927835e-11,2628.3927129387,1.3033621867194,4.8666706949085e-11,3978.1961091501,3153.5231021472,-1.2274920663247e-11,4768.0305577609,5730.8696504371,-7.5985095512897,-6.3465717056732e-12,3155.0862776379,3.7004138035007e-11,4784.1775958162
1.373,2476.6928048013,-1.0284675888705e-11,3731.9300536463,4482.2742590198,0.00036845272109076,1.0732653914908e-11,2478.5083936291,4.4961476382277e-11,3734.6724991332,1750.8000958222,3.2388125601607e-11,2631.8907989258,1.3068644447574,4.8384144780977e-11,3969.9432579614,3161.0140574348,-1.3126336823044e-11,4763.0789485686,5730.8713374984,-7.614423237324,1.4176164582491e-12,3162.5850529544,4.5177855380329e-11,4779.2258838887
1.374,2482.5462978802,-1.0128144850574e-11,3728.0266664251,4482.2730132857,0.00036737411676313,1.6171884144323e-11,2484.3710744033,5.0375140690784e-11,3730.7736101643,1759.0845531999,3.2590127645171e-11,2635.3629070803,1.3103666949912,4.8221586446129e-11,3961.6794603574,3168.4972377331,-1.2926604231467e-11,4758.1155705046,5730.8729997033,-7.6303070714018,8.3593644159552e-12,3170.0760679291,5.2087504014836e-11,4774.2623811284
1.375,2488.3936390653,-1.0023428267947e-11,3724.1140981065,4482.2717675682,0.00036628193663546,1.0734544763497e-11,2490.2276218963,4.4912901956545e-11,3726.8655180304,1767.3798753426,3.2672226469438e-11,2638.8090031489,1.3138689374213,4.8401217062066e-11,3953.4047980072,3175.9726245522,-1.2793013176582e-11,4753.1404357773,5730.8746370978,-7.6461610142957,1.4219610731947e-12,3177.5593040223,4.5116098790904e-11,4769.2870996965
1.376,2494.2348139563,-1.0616351547865e-11,3720.192358386,4482.2705218689,0.0003651760697494,1.3441358269473e-11,2496.0780216621,4.7754019055074e-11,3722.9482323812,1775.6859804738,3.2636491599514e-11,2642.2290531349,1.3173711720429,4.8019220544315e-11,3945.119352687,3183.4401994214,-1.3549793231871e-11,4748.153556624,5730.876249731,-7.6619850269866,4.8750166230238e-12,3185.0347427146,4.8742396403789e-11,4764.3000517859
1.377,2500.0698081681,-9.9498083383498e-12,3716.2614569818,4482.269276186,0.00036405665343864,1.4826456902484e-11,2501.922259268,4.8881011651541e-11,3719.0217628861,1784.0027867111,3.2894294059449e-11,2645.6230232987,1.3208733988493,4.8039537625666e-11,3936.8232062795,3190.8999438893,-1.2699133411509e-11,4743.1549453112,5730.8778376477,-7.6777790702042,6.6422206276839e-12,3192.5023655038,5.0180936662925e-11,4759.301249615
1.378,2505.8986073308,-1.0073917394715e-11,3712.3214036348,4482.2680305208,0.00036292360391599,1.2107414897045e-11,2507.7603202981,4.6141303885333e-11,3715.0861192397,1792.3302120661,3.3031444766907e-11,2648.9908801583,1.3243756178434,4.8150458446805e-11,3928.5164407728,3198.3518395237,-1.2857607339933e-11,4738.1446141342,5730.8794008967,-7.6935431050396,3.1747868223242e-12,3199.9621539085,4.6684294884719e-11,4754.2907054345
1.379,2511.7211970901,-9.9256193542008e-12,3708.3722081081,4482.2667848723,0.00036177685115035,1.6870558335741e-11,2513.5921903503,5.0857843977847e-11,3711.1413111575,1800.6681744459,3.3054699168783e-11,2652.3325904893,1.3278778290214,4.8172851124795e-11,3920.1991382598,3205.7958679115,-1.2668373294833e-11,4733.1225754175,5730.8809395238,-7.7092770926371,9.2526927959746e-12,3207.4140894653,5.2704310967572e-11,4749.2684315219
1.38,2517.537563107,-9.7639500651336e-12,3704.4138801876,4482.2655392412,0.00036061645425889,1.2800291208925e-11,2519.4178550392,4.6723301443119e-11,3707.1873483788,1809.0165916536,3.3247643353718e-11,2655.6481213253,1.3313800323788,4.8325753988776e-11,3911.8713809375,3213.2320106594,-1.2462069570729e-11,4728.0888415143,5730.8824535772,-7.7249809940531,4.0579067883684e-12,3214.8581537309,4.7427357614122e-11,4744.2344401854
1.381,2523.3476910577,-9.8930585945567e-12,3700.4464296816,4482.2642936271,0.00035944235958141,2.6025731049428e-12,2525.2372999936,3.6559240010337e-11,3703.2242406646,1817.375381389,3.3202171047242e-11,2658.9374399584,1.3348822279131,4.820355573032e-11,3903.5332511058,3220.660249393,-1.2626916873204e-11,4723.0434248068,5730.8839431037,-7.7406547705596,-8.9579086336167e-12,3222.2943282807,3.4454604534023e-11,4739.188743761
1.382,2529.1515666342,-1.0104795472587e-11,3696.4698664207,4482.2630480298,0.00035825456939165,9.3956869194611e-12,2531.0505108582,4.3420460369564e-11,3699.2519977988,1825.7444612499,3.3252650633031e-11,2662.2005139394,1.3383844156271,4.8002215917442e-11,3895.1848311672,3228.0805657578,-1.2897207607443e-11,4717.9863377061,5730.8854081504,-7.7562983834328,-2.9110481386541e-13,3229.7225947097,4.3212025103989e-11,4734.1313546139
1.383,2534.9491755439,-1.0025896779453e-11,3692.4842002583,4482.2618024503,0.00035705303298528,1.8904260535441e-11,2536.8574732934,5.2949728802931e-11,3695.2706295887,1834.1237487324,3.3322499273791e-11,2665.4373110783,1.3418865955103,4.7815185838518e-11,3886.8262036255,3235.4929414184,-1.2796548543026e-11,4712.917592652,5730.8868487659,-7.7719117940929,1.1847303520163e-11,3237.1429346327,5.5374899977922e-11,4729.0622851395
1.384,2540.7405035095,-1.0240839426467e-11,3688.48944107,4482.2605568865,0.00035583786143434,9.3943524834272e-12,2542.6581729736,4.3441561545926e-11,3691.2801458615,1842.5131612317,3.3425859736341e-11,2668.6477994442,1.3453887675661,4.7697222040066e-11,3878.4574510852,3242.8973580592,-1.307095404135e-11,4707.8372021133,5730.8882649951,-7.7874949638226,-2.9436912976633e-13,3244.5553296823,4.3239171791665e-11,4723.981547759
1.385,2546.5255362694,-1.0109031667316e-11,3684.4855987536,4482.2593113407,0.00035460877961668,1.1433753683426e-11,2548.4525955908,4.541617212514e-11,3687.2805564708,1850.9126160436,3.3603825451423e-11,2671.831947366,1.348890931787,4.7857254617534e-11,3870.0786562508,3250.2937973841,-1.290276566146e-11,4702.7451785875,5730.8896568887,-7.8030478544799,2.3129597195859e-12,3251.9597615132,4.5759626123021e-11,4718.8891549271
1.386,2552.3042595778,-9.7355942751953e-12,3680.4726832297,4482.2580658116,0.00035336604253189,1.8934573960822e-11,2554.2407268509,5.2693166670281e-11,3683.2718712891,1859.3220303644,3.3743365306788e-11,2674.9897234327,1.352393088173,4.7846497597259e-11,3861.6899019257,3257.6822411165,-1.2426181611458e-11,4697.6415346007,5730.8910244922,-7.8185704273141,1.1887020014145e-11,3259.3562117974,5.5047902434296e-11,4713.7851191232
1.387,2558.0766592043,-1.0047337961616e-11,3676.4507044409,4482.2568202994,0.00035210948681197,1.7563698759271e-11,2560.0225524757,5.1472487730408e-11,3679.2541002133,1867.7413212923,3.3741440631091e-11,2678.1210964934,1.355895236724,4.7741084523156e-11,3853.2912710118,3265.0626709996,-1.2824137585188e-11,4692.5262827079,5730.8923678539,-7.8340626441876,1.0135075070861e-11,3266.7446622273,5.3489997153822e-11,4708.6694528575
1.388,2563.8427209342,-9.7806658605482e-12,3672.4196723522,4482.2555748046,0.00035083908062461,8.7349580693563e-12,2565.7980582032,4.2524102728675e-11,3675.2272531625,1876.1704058282,3.4094958193537e-11,2681.226035658,1.3593973774333,4.7967541397242e-11,3844.8828465082,3272.4350687964,-1.2483812594777e-11,4687.3994354928,5730.8936870221,-7.8495244668682,-1.1299446621427e-12,3274.1250945152,4.2068585160565e-11,4703.5421686693
1.389,2569.6024305686,-9.5420789325562e-12,3668.379596951,4482.2543293261,0.00034955490991706,1.8265475069945e-11,2571.5672297857,5.1945944073983e-11,3671.1913400769,1884.6092008762,3.4150043470155e-11,2684.3045102971,1.3628995103004,4.7963145607954e-11,3836.4647115107,3279.7994162895,-1.2179323521933e-11,4682.2610055675,5730.894982043,-7.8649558570472,1.1030560145842e-11,3281.497490392,5.4094607265798e-11,4698.4032791245
1.39,2575.3557739241,-9.675683865229e-12,3664.3304882468,4482.2530838645,0.00034825686816475,1.554124971076e-11,2577.3300529923,4.9208953318419e-11,3667.1463709206,1893.0576232447,3.415928390843e-11,2687.3564900427,1.3664016353207,4.7905733199793e-11,3828.0369492109,3287.1556952814,-1.2349909289666e-11,4677.111005573,5730.8962529653,-7.8803567767382,7.558328962709e-12,3288.8618316094,5.060128835041e-11,4693.25279682
1.391,2581.1027368334,-9.7985890235019e-12,3660.2723562716,4482.2518384202,0.00034694501482591,1.3490667350596e-11,2583.0865136076,4.7315100188544e-11,3663.0923556798,1901.5155896471,3.4296497499614e-11,2690.3819447882,1.3699037524926,4.7740069709923e-11,3819.5996428952,3294.5038875942,-1.250683584475e-11,4671.9494481788,5730.8974998375,-7.8957271878208,4.937373860453e-12,3296.2180999387,4.8184108179111e-11,4688.090734381
1.392,2586.8433051448,-9.6971458640738e-12,3656.2052110794,4482.2505929922,0.0003456192205249,1.7581437607855e-11,2588.8365974313,5.1297455432725e-11,3659.029304362,1909.9830167028,3.4333313969626e-11,2693.3808446888,1.3734058618165,4.7803295176452e-11,3811.1528759445,3301.8439750704,-1.237740465676e-11,4666.7763460829,5730.8987227063,-7.9110670524839,1.0158244904968e-11,3303.56627717,5.3267321543232e-11,4682.9171044601
1.393,2592.5774647226,-9.3030652625892e-12,3652.1290627464,4482.2493475816,0.00034427955097271,1.0112542747631e-11,2594.5802902797,4.3724183128313e-11,3654.9572269985,1918.4598209376,3.4487673567646e-11,2696.353160162,1.3769079632867,4.7790230973954e-11,3802.6967318328,3309.1759395719,-1.1874463218264e-11,4661.5917120119,5730.899921621,-7.9263763327493,6.2873404399477e-13,3310.9063451148,4.3600892861428e-11,4677.7319197402
1.394,2598.3052014466,-9.2495455739083e-12,3648.0439213711,4482.2481021876,0.00034292599900709,1.0119016735644e-11,2600.3175779841,4.3674436896873e-11,3650.8761336413,1926.945918785,3.4546865802093e-11,2699.2988618874,1.3804100568992,4.7839909984859e-11,3794.2312941264,3316.4997629809,-1.1806174093909e-11,4656.3955587208,5730.9010966288,-7.9416549908048,6.3653509546624e-13,3318.2382856031,4.3537510402425e-11,4672.5351929315
1.395,2604.0265012131,-9.2244302474231e-12,3643.949797074,4482.2468568105,0.00034155849971285,7.4128311995658e-12,2606.048446392,4.0869728174658e-11,3646.7860343658,1935.4412265869,3.4709973176922e-11,2702.2179208076,1.3839121426535,4.7760470058e-11,3785.7566464837,3323.8154271996,-1.1774175384671e-11,4651.1878989932,5730.9022477782,-7.9569029889882,-2.8203177640518e-12,3325.5620804856,3.9957643097055e-11,4667.3269367735
1.396,2609.7413499338,-9.0707268085577e-12,3639.8466999978,4482.2456114501,0.00034017705229417,1.215481361394e-11,2611.7728813667,4.5706367510223e-11,3642.6869392691,1943.945660594,3.4755051267488e-11,2705.1103081279,1.3874142205473,4.7741742850715e-11,3777.2728726537,3331.1229141502,-1.1578037140136e-11,4645.968745641,5730.9033751171,-7.9721202896298,3.2355923496041e-12,3332.8777116325,4.6131348740985e-11,4662.1071640337
1.397,2615.4497335367,-9.1912623345625e-12,3635.7346403074,4482.244366106,0.00033878167459989,8.0772385308014e-12,2617.4908687871,4.1661202699467e-11,3638.5788584701,1952.4591369674,3.4917015459546e-11,2707.975995317,1.3909162905748,4.7679938990075e-11,3768.7800564754,3338.422205775,-1.1731948745819e-11,4640.7381115046,5730.9044786933,-7.9873068551111,-1.9714343005295e-12,3340.185160934,4.0968109980832e-11,4656.8758875081
1.398,2621.1516379658,-8.9213254839127e-12,3631.6136281895,4482.2431207791,0.00033737230126007,1.0129273288195e-11,2623.2023945487,4.3594938856778e-11,3634.4618021112,1960.9815717787,3.5014850394144e-11,2710.8149541071,1.3944183527385,4.7812645335987e-11,3760.2782818771,3345.7132840366,-1.1387425724596e-11,4635.4960094528,5730.9055585562,-8.0024626480009,6.4842142072363e-13,3347.4844103013,4.3436503525951e-11,4651.6331200223
1.399,2626.8470491809,-9.1563735760136e-12,3627.483673853,4482.2418754691,0.00033594893898226,8.0899293340708e-12,2628.9074445626,4.1540610361268e-11,3630.3357803559,1969.5128810112,3.5312417920319e-11,2713.6271564943,1.397920407033,4.7710613237939e-11,3751.7676328754,3352.9961309176,-1.1687501660917e-11,4630.2424523826,5730.9066147539,-8.0175876308469,-1.9544539597849e-12,3354.7754416648,4.0814396133626e-11,4646.3788744295
1.4,2632.5359531583,-8.8296557565481e-12,3623.344787529,4482.2406301753,0.00033451162107667,1.8978649381218e-11,2634.6060047553,5.2260432960305e-11,3626.2008033894,1978.0529805609,3.5287788316407e-11,2716.4125747385,1.4014224534555,4.7890579522869e-11,3743.2481935744,3360.270728421,-1.1270498423421e-11,4624.9774532194,5730.9076473339,-8.0326817662389,1.1946013622754e-11,3362.0582369747,5.4497738787018e-11,4641.1131636104
1.401,2638.2183358899,-9.0325524837453e-12,3619.1969794702,4482.2393848983,0.00033306018940493,1.0126151219619e-11,2640.2980610701,4.3608205588241e-11,3622.0568814202,1986.6017862367,3.5178150756959e-11,2719.1711813645,1.4049244920015,4.7875586307866e-11,3734.7200481651,3367.5370585701,-1.1529548149536e-11,4619.7010249168,5730.9086563455,-8.0477450170891,6.4721231846088e-13,3369.3327782023,4.345377530024e-11,4635.8360004758
1.402,2643.8941833843,-9.169925235808e-12,3615.0402599516,4482.2381396373,0.00033159478243761,1.4887685702292e-11,2645.9835994658,4.8273281639394e-11,3617.9040246775,1995.159213762,3.5244954090657e-11,2721.9029491611,1.4084265226739,4.774467453339e-11,3726.1832809242,3374.7951034086,-1.1704942570745e-11,4614.4131804568,5730.9096418362,-8.0627773460064,6.7296923242366e-12,3376.5990473384,4.9408646445037e-11,4630.5473979632
1.403,2649.563481666,-9.4584617915672e-12,3610.87463927,4482.2368943941,0.00033011529569649,1.1470508570754e-11,2651.6626059185,4.5052183338112e-11,3613.7422434149,2003.7251787749,3.5326320861617e-11,2724.6078511826,1.4119285454647,4.7652940621257e-11,3717.6379762134,3382.0448450002,-1.207328681474e-11,4609.1139328495,5730.9106038568,-8.0777787159914,2.366240016427e-12,3383.8570263957,4.5297182671433e-11,4625.247369041
1.404,2655.2262167756,-9.6639814206601e-12,3606.7001277441,4482.2356491673,0.00032862172190562,1.078053011444e-11,2657.335066419,4.4485468260469e-11,3609.5715479053,2012.2995968293,3.5185908440344e-11,2727.285860748,1.4154305603725,4.7324004090465e-11,3709.0842184788,3389.2862654296,-1.2335684557163e-11,4603.8032951332,5730.9115424546,-8.0927490899873,1.4829587210996e-12,3391.106697405,4.4573907932721e-11,4619.9359267032
1.405,2660.8823747702,-9.7698030221416e-12,3602.5167357146,4482.234403957,0.00032711406072394,1.6214458595232e-11,2663.0009669744,4.9951157793382e-11,3605.3919484446,2020.8823833959,3.5311742245525e-11,2729.9369514421,1.4189325673949,4.7244356864151e-11,3700.5220922497,3396.5193468016,-1.2470822985389e-11,4598.4812803742,5730.9124576779,-8.1076884310116,8.4181403167682e-12,3398.3480424184,5.1550796617561e-11,4614.6130839726
1.406,2666.5319417231,-9.4669549977056e-12,3598.3244735439,4482.2331587624,0.00032559229930484,1.2849312759633e-11,2668.6602936083,4.6284755108456e-11,3601.2034553505,2029.4734538627,3.5399009244708e-11,2732.5610971151,1.4224345665314,4.7468987074417e-11,3691.951682138,3403.7440712416,-1.2084281492131e-11,4593.1479016672,5730.9133495749,-8.1225967021705,4.1236606143635e-12,3405.581043508,4.687087436922e-11,4609.2788539003
1.407,2672.1749037239,-9.3850587024047e-12,3594.1233516164,4482.2319135855,0.00032405639149147,1.0799799422812e-11,2674.3130323616,4.4356818565405e-11,3597.0060789642,2038.072723536,3.5322132371784e-11,2735.1582718833,1.4259365577743,4.7399461959585e-11,3683.3730728375,3410.9604208955,-1.1979771341597e-11,4587.8031721349,5730.9142181968,-8.137473866695,1.5094184582787e-12,3412.8056827683,4.4410038146925e-11,4603.9332495678
1.408,2677.8112468787,-9.5031482683083e-12,3589.9133803383,4482.2306684244,0.00032250641504561,1.5546917919718e-11,2679.9591692895,4.9131600697583e-11,3592.7998296463,2046.6801076413,3.5443881770542e-11,2737.7284501293,1.4294385411267,4.7200840458395e-11,3674.7863491225,3418.16837793,-1.213056391447e-11,4582.4471049278,5730.9150635902,-8.1523198877291,7.5716377612167e-12,3420.0219423116,5.0505085356922e-11,4598.576284081
1.409,2683.4409573097,-9.0302973432266e-12,3585.6945701374,4482.2294232801,0.00032094224070534,1.0807690246223e-11,2685.5986904648,4.4231364664665e-11,3588.584717781,2055.2955213241,3.5630929196701e-11,2740.2716065019,1.4329405165819,4.7513578141367e-11,3666.1915958476,3425.3679245323,-1.1527008514367e-11,4577.0797132246,5730.9158858051,-8.1671347287613,1.5226726129969e-12,3427.2298042724,4.4250133071633e-11,4593.2079705769
1.41,2689.0640211559,-8.8799315123289e-12,3581.4669314635,4482.2281781522,0.00031936387210862,8.105586948165e-12,2691.2315819763,4.137688932801e-11,3584.360753774,2063.9188796506,3.5940125008016e-11,2742.7877159169,1.4364424841392,4.7470211789191e-11,3657.5888979466,3432.5590429103,-1.1335127281242e-11,4571.7010102322,5730.9166848904,-8.181918353186,-1.9278918739207e-12,3434.4292508053,4.0606531158394e-11,4587.8283222192
1.411,2694.6804245725,-8.7661440606457e-12,3577.2304747881,4482.2269330407,0.00031777131516719,1.8315733912172e-11,2696.8578299291,5.1424215146562e-11,3580.1279480524,2072.5500976086,3.5941682356017e-11,2745.2767535569,1.4399444437968,4.758023402357e-11,3648.9783404315,3439.7417152926,-1.1189920517962e-11,4566.3110091852,5730.9174608948,-8.1966707244714,1.1106251335269e-11,3441.6202640855,5.3432019225808e-11,4582.4373521998
1.412,2700.2901537313,-8.9680797510372e-12,3572.9852106042,4482.2256879454,0.00031616461058093,1.9656739343871e-11,2702.4774204447,5.2916749974929e-11,3575.8863110653,2081.1890901085,3.5881300968627e-11,2747.7386948717,1.4434463955497,4.7465342420394e-11,3640.3600083919,3446.9159239288,-1.1447724712621e-11,4560.909723346,5730.9182138675,-8.2113918061189,1.2817404256016e-11,3448.8028263091,5.5337381378584e-11,4577.0350737389
1.413,2705.8931948206,-9.478331314261e-12,3568.7311494267,4482.2244428672,0.00031454360726002,2.2355397047424e-11,2708.0903396615,5.5802505845304e-11,3571.6358532847,2089.835771984,3.5883570854295e-11,2750.1735155785,1.4469483393959,4.7028816604899e-11,3631.7339869942,3454.081651089,-1.2099120316744e-11,4555.4971660052,5730.9189438587,-8.2260815619548,1.6264705728075e-11,3455.9769196932,5.9021223672295e-11,4571.6215000855
1.414,2711.4895340452,-9.0599368285371e-12,3564.4683017921,4482.2231978044,0.00031290845220155,1.8975673029414e-11,2713.6965737332,5.2253050410872e-11,3567.3765852017,2098.4900579929,3.6079280622131e-11,2752.5811916624,1.450450275331,4.7240916040137e-11,3623.1003614805,3461.2388790645,-1.1565061408536e-11,4550.073350481,5730.9196509154,-8.2407399554952,1.1948458715494e-11,3463.1425264742,5.4490456417866e-11,4566.1966445139
1.415,2717.0791576267,-8.7479433419357e-12,3560.1966782586,4482.2219527591,0.00031125895156947,1.3564532743565e-11,2719.2961088317,4.6634401635465e-11,3563.1085173327,2107.151862818,3.6215230900943e-11,2754.9616993763,1.4539522033552,4.7333937117089e-11,3614.4592171679,3468.3875901672,-1.1166866042966e-11,4544.6382901197,5730.9203350897,-8.2553669507784,5.0397732861973e-12,3470.2996289118,4.7318301187038e-11,4560.7605203302
1.416,2722.6620518031,-8.6849520630761e-12,3555.9162894058,4482.2207077292,0.00030959526043262,1.2200425565656e-11,2724.8889311436,4.5266454647142e-11,3558.8316602121,2115.821101068,3.6426960406399e-11,2757.3150152411,1.4574541234647,4.7313999072818e-11,3605.8106394477,3475.5277667302,-1.1086492834878e-11,4539.1919982951,5730.9209964282,-8.2699625114643,3.3022777221059e-12,3477.4482092838,4.5572217007017e-11,4555.3131408643
1.417,2728.2382028293,-8.6373130869788e-12,3551.6271458351,4482.219462716,0.00030791725009749,1.0167683969081e-11,2730.4750268736,4.3232362568341e-11,3554.5460243989,2124.4976872784,3.6512886030654e-11,2759.6411160463,1.4609560356551,4.7337598250985e-11,3597.1547137845,3482.6593911076,-1.1025749757643e-11,4533.7344884089,5730.9216349821,-8.2845266016599,7.0500896787173e-13,3484.5882498911,4.297576530754e-11,4549.8545194773
1.418,2733.8075969766,-8.7543756965847e-12,3547.3292581694,4482.2182177195,0.00030622493738974,1.152380578115e-11,2736.0543822424,4.4583235974532e-11,3550.2516204728,2133.1815359118,3.6515671562876e-11,2761.9399788499,1.4644579399297,4.7182421164527e-11,3588.4915257154,3489.7824456743,-1.1175227410121e-11,4528.2657738905,5730.9222508008,-8.2990591853639,2.4372110232762e-12,3491.7197330548,4.4700315497692e-11,4544.3846695569
1.419,2739.3702205333,-9.2855237388001e-12,3543.022637053,4482.2169727387,0.00030451830616585,1.2176508933093e-11,2741.6269834867,4.5509618209344e-11,3545.9484590339,2141.8725613598,3.6316083387028e-11,2764.2115809789,1.4679598362798,4.6963813914169e-11,3579.821160849,3496.8969128265,-1.1853289183517e-11,4522.785868197,5730.9228439325,-8.313560226689,3.270712693737e-12,3498.8426411159,4.5882997921909e-11,4538.9036045174
1.42,2744.9260598044,-9.3243884835559e-12,3538.7072931518,4482.215727774,0.00030279737904948,1.013890273821e-11,2747.1928168609,4.3432808998628e-11,3541.6365507055,2150.5706779426,3.6411791550645e-11,2766.4559000291,1.4714617247035,4.7034931505152e-11,3571.1437048649,3504.0027749815,-1.1902943908293e-11,4517.2947848132,5730.9234144275,-8.3280296897826,6.7189656616229e-13,3505.9569564381,4.3231991771198e-11,4533.4113378026
1.421,2750.4751011117,-9.6371140234641e-12,3534.3832371533,4482.2144828256,0.00030106207543668,7.4029753681371e-12,2752.7518686357,4.0953199598875e-11,3537.3159061321,2159.2757999109,3.6624077902336e-11,2768.6729138659,1.474963605199,4.6668098205305e-11,3562.4592435126,3511.1000145777,-1.230220092463e-11,4511.7925372515,5730.9239623356,-8.3424675389995,-2.8263303156195e-12,3513.0626614053,4.0066758071056e-11,4527.9078828834
1.422,2756.0173307937,-9.9528302266449e-12,3530.0504797662,4482.2132378942,0.00029931240499081,1.010977716473e-11,2758.3041250989,4.3715209403772e-11,3532.9865359801,2167.9878414461,3.6573498136266e-11,2770.862600624,1.4784654777633,4.6570291893644e-11,3553.7678626104,3518.1886140749,-1.2705270863167e-11,4506.2791390517,5730.9244877073,-8.3568737386589,6.3236221814478e-13,3520.1597384234,4.3592719711771e-11,4522.3932532593
1.423,2761.552735206,-1.0105822428885e-11,3525.7090317208,4482.2119929787,0.00029754835247786,1.7579569310672e-11,2763.8495725543,5.1256518127096e-11,3528.6484509362,2176.7067166614,3.6545017012557e-11,2773.0249387078,1.4819673423953,4.6482464578779e-11,3545.0696480451,3525.2685559539,-1.2900590318221e-11,4500.7546037815,5730.924990591,-8.3712482531844,1.0166596731143e-11,3527.2481699179,5.3219737644605e-11,4516.8674624555
1.424,2767.0813007209,-9.7860053394072e-12,3521.3589037688,4482.2107480792,0.00029576987230939,6.0275191955672e-12,2769.3881973229,3.9690815738236e-11,3524.3016617092,2185.4323396027,3.669919359725e-11,2775.1599067918,1.4854691990868,4.645477232057e-11,3536.3646857709,3532.339822717,-1.249240294543e-11,4495.2189450359,5730.9254710368,-8.3855910471231,-4.5803708048631e-12,3534.3279383366,3.8455549508654e-11,4511.3305240261
1.425,2772.6030137279,-1.0005836437177e-11,3517.0001066831,4482.2095031955,0.00029397704463463,1.2834058035066e-11,2774.9199857424,4.6380820191427e-11,3519.9461790294,2194.1646242493,3.6649693696544e-11,2777.2674838204,1.4889710478452,4.6372633163982e-11,3527.6530618085,3539.4023968877,-1.2773077734396e-11,4489.6721764374,5730.925929094,-8.3999020849358,4.110175741423e-12,3541.3990261479,4.6995890685964e-11,4505.7824515523
1.426,2778.1178606331,-1.0350303947249e-11,3512.632651258,4482.2082583287,0.0002921697621332,1.2116811894114e-11,2780.4449241683,4.6009539060587e-11,3515.5820136497,2202.9034845146,3.6797758850432e-11,2779.3476490087,1.4924728886566,4.5975262659426e-11,3518.9348622443,3546.4562610112,-1.3212892585601e-11,4484.1143116361,5730.9263648144,-8.4141813314046,3.1936389296994e-12,3548.4614158431,4.6522048366415e-11,4500.2232586445
1.427,2783.6258278598,-9.543466711337e-12,3508.2565483094,4482.2070134774,0.00029034803208106,8.7642861718029e-12,2785.9629989713,4.2203632515808e-11,3511.2091763421,2211.6488342475,3.6874824374533e-11,2781.4003818421,1.4959747215275,4.6423109280325e-11,3510.2101732294,3553.5013976537,-1.218293521621e-11,4478.5453643094,5730.9267782457,-8.4284287512387,-1.0826322477397e-12,3555.5150899324,4.1663647358525e-11,4494.6529589378
1.428,2789.1269018485,-9.1804237822846e-12,3503.871808674,4482.205768642,0.00028851184686118,1.6938890828183e-11,2791.4741965405,5.0221079898882e-11,3506.8276779016,2220.4005872327,3.7076548862341e-11,2783.4256620767,1.4994765464495,4.6503152023591e-11,3501.4790809792,3560.5377894031,-1.171951771739e-11,4472.965348162,5730.9271694388,-8.4426443092494,9.3501968320697e-12,3562.560030949,5.189867632871e-11,4489.071566097
1.429,2794.6210690565,-9.7630792339487e-12,3499.4784432102,4482.2045238231,0.00028666119158061,7.4036232873553e-12,2796.9785032817,4.0939596331058e-11,3502.4375291447,2229.1586571918,3.697122122337e-11,2785.4234697399,1.5029783634187,4.630893672003e-11,3492.741671772,3567.565418869,-1.2463391430018e-11,4467.3742769262,5730.9275384444,-8.4568279703348,-2.825193204381e-12,3569.5962214475,4.0050195798669e-11,4483.4790938141
1.43,2800.1083159584,-9.7973296142584e-12,3495.0764627974,4482.2032790201,0.00028479608056386,7.3949288532937e-12,2802.4759056171,4.0970222440345e-11,3498.0387409082,2237.922957784,3.7215567866983e-11,2787.3937851298,1.5064801724393,4.6117070232055e-11,3483.9980319484,3574.5842686821,-1.2507148094976e-11,4461.7721643614,5730.9278853119,-8.4709796994336,-2.8358764989078e-12,3576.6236440033,4.0089401416588e-11,4477.8755558077
1.431,2805.5886290457,-9.404463319207e-12,3490.6658783362,4482.2020342337,0.00028291642581735,1.2177491220261e-11,2807.9663899869,4.5467299630148e-11,3493.6313240514,2246.6934026072,3.733518659163e-11,2789.3365888163,1.5099819735019,4.6209829365762e-11,3475.2482479107,3581.5943214953,-1.2005681171434e-11,4456.1590242545,5730.9282100924,-8.4850994616946,3.2725783888354e-12,3583.6422812142,4.5830461821439e-11,4472.2609658249
1.432,2811.0619948273,-9.4926844163012e-12,3486.2467007486,4482.2007894626,0.00028102223461701,1.6260422695813e-11,2813.4499428469,4.9542228392624e-11,3489.2152894533,2255.4699051988,3.7433645592999e-11,2791.2518616404,1.5134837666077,4.6184327195942e-11,3466.4924061214,3588.5955599826,-1.2118365338987e-11,4450.5348704195,5730.9285128345,-8.4991872222224,8.4817231363332e-12,3590.6521156978,5.1032638184734e-11,4466.6353376382
1.433,2816.5283998293,-9.2492957737278e-12,3481.8189409774,4482.1995447084,0.00027911347569898,1.6942081418336e-11,2818.9265506719,5.0149333470639e-11,3484.7906480162,2264.2523790361,3.7547088702072e-11,2793.1395847153,1.51698555175,4.6102880194021e-11,3457.730593103,3595.58796684,-1.1807665956098e-11,4444.8997166976,5730.9287935907,-8.5132429462529,9.3553845226246e-12,3597.653130096,5.1807814115123e-11,4460.9986850506
1.434,2821.9878305948,-9.2518354088966e-12,3477.3826099869,4482.1982999685,0.00027719024637918,1.7633571252479e-11,2824.3961999515,5.0738911770015e-11,3480.3574106607,2273.0407375379,3.7635200077907e-11,2794.9997394257,1.5204873289303,4.6193896797997e-11,3448.9628954369,3602.5715247852,-1.1810958461256e-11,4439.2535769573,5730.9290524079,-8.5272665989313,1.0238139329377e-11,3604.6453070686,5.2560613847397e-11,4455.3510218879
1.435,2827.4402736844,-8.8833419786827e-12,3472.9377187622,4482.1970552458,0.00027525242649062,1.4233377931133e-11,2829.8588771955,4.7314462243986e-11,3475.9155883325,2281.8348940647,3.7721315220701e-11,2796.8323074287,1.5239890981427,4.623090885808e-11,3440.1893997624,3609.5462165576,-1.1340602068532e-11,4433.5964650942,5730.9292893401,-8.5412581457678,5.9016749820451e-12,3611.6286293016,4.818905344206e-11,4449.6923620085
1.436,2832.8857156761,-8.8826203337167e-12,3468.4842783096,4482.1958105382,0.00027330003956649,1.0158527664894e-11,2835.3145689279,4.324274792411e-11,3471.4651919949,2290.6347619201,3.7817866026246e-11,2798.6372706535,1.5274908593872,4.6153036253882e-11,3431.410192776,3616.5120249185,-1.1339713890113e-11,4427.928395031,5730.9295044353,-8.5552175521607,6.9695551413451e-13,3618.6030794988,4.2991140161708e-11,4444.0227192935
1.437,2838.3241431648,-8.6647009012175e-12,3464.0222996566,4482.1945658476,0.00027133305127336,1.8327282833713e-11,2840.7632616926,5.127955178541e-11,3467.0062326353,2299.4402543511,3.8201622854644e-11,2800.4146113019,1.5309926126588,4.6366546019305e-11,3422.6253612306,3623.468932651,-1.1061564858528e-11,4422.2493807175,5730.9296977464,-8.5691447836681,1.1123482343556e-11,3625.568640389,5.3251243692376e-11,4438.3421076549
1.438,2843.7555427632,-9.2137200646825e-12,3459.5517938514,4482.1933211718,0.00026935145137941,1.1518542630123e-11,2846.2049420481,4.460527346789e-11,3462.5387212591,2308.2512845494,3.7856593294167e-11,2802.1643118481,1.5344943579571,4.6180759737113e-11,3413.8349919344,3630.41692256,-1.1762507634572e-11,4416.5594361307,5730.9298693212,-8.5830398058891,2.4331205453199e-12,3632.5252947192,4.4730795456527e-11,4432.650541028
1.439,2849.1799011011,-8.9624141441647e-12,3455.0727719633,4482.1920765125,0.00026735519168142,1.6276018293543e-11,2851.6395965726,4.9354021737502e-11,3458.0626688958,2317.067765652,3.8205352076437e-11,2803.8863550394,1.5379960952769,4.6170509256094e-11,3405.0391717504,3637.3559774728,-1.1441698283265e-11,4410.8585752742,5730.9300192124,-8.5969025845585,8.5060005913795e-12,3639.4730252618,5.0793339152755e-11,4426.9480333787
1.44,2854.5972048261,-8.2759285535694e-12,3450.5852450828,4482.1908318685,0.00026534432549852,1.8353684891337e-11,2857.0672118601,5.1049984118451e-11,3453.5780865937,2325.8896107424,3.8371124420206e-11,2805.580723896,1.5414978246149,4.6340646597809e-11,3396.2379875951,3644.286080238,-1.0565364555459e-11,4405.1468121791,5730.9301474693,-8.610733085356,1.1158574932113e-11,3646.4118148087,5.295860625032e-11,4421.2345986976
1.441,2860.0074406029,-8.5326988530365e-12,3446.0892243211,4482.1895872413,0.00026331872356877,1.4273526371261e-11,2862.4877745232,4.7001857267359e-11,3449.0849854244,2334.7167328509,3.8400590433169e-11,2807.247401711,1.5449995459711,4.62288228531e-11,3387.4315264382,3651.2072137269,-1.0893220353525e-11,4399.424160903,5730.9302541445,-8.6245312742785,5.9499601426372e-12,3653.3416461755,4.7790725370145e-11,4415.5102510049
1.442,2865.4105951138,-8.2782287968985e-12,3441.5847208103,4482.1883426287,0.00026127853800517,1.632085742595e-11,2867.90127119,4.8951889850685e-11,3444.5833764773,2343.5490449559,3.8548793497573e-11,2808.8863720511,1.5485012593417,4.625706935546e-11,3378.6198753012,3658.1193608324,-1.0568372565967e-11,4393.6906355308,5730.930339286,-8.6382971170351,8.5632776911093e-12,3660.2625021973,5.0280363206312e-11,4409.7750043437
1.443,2870.8066550588,-8.4503758157606e-12,3437.0717457035,4482.1870980325,0.00025922364307007,1.6988727698924e-11,2873.3076885084,4.9715526400512e-11,3440.0732708662,2352.3864599846,3.8719603911996e-11,2810.4976187565,1.5520029647213,4.630544819112e-11,3369.8031212569,3665.0225044698,-1.0788182847055e-11,4387.946250174,5730.930402947,-8.6520305797805,9.418035795683e-12,3667.1743657342,5.1255400097816e-11,4404.0288727888
1.444,2876.1956071553,-8.3869022837746e-12,3432.5503101745,4482.1858534521,0.00025715402136939,1.4954896262326e-11,2878.7070131422,4.768755702822e-11,3435.5546797238,2361.228890814,3.8749286765394e-11,2812.0811259407,1.555504662111,4.6045504215053e-11,3360.9813514282,3671.9166275764,-1.0707233710772e-11,4382.191018971,5730.9304451775,-8.6657316286032,6.8183705209668e-12,3674.0772196665,4.8666500516992e-11,4398.2718704391
1.445,2881.5774381383,-8.0074315234047e-12,3428.0204254181,4482.184608887,0.00025506971053346,8.8596265740426e-12,2884.099231773,4.1340696491088e-11,3431.027614204,2370.0762502716,3.8940432042084e-11,2813.6368779912,1.5590063515066,4.6318005854362e-11,3352.1546529877,3678.8017131118,-1.022279483287e-11,4376.424956087,5730.930466028,-8.6794002296037,-9.581016535698e-13,3680.9710468966,4.0563814460159e-11,4392.5040114206
1.446,2886.9521347605,-8.2027301617771e-12,3423.4821026498,4482.1833643382,0.00025297068873442,1.4280901114438e-11,2889.4843311006,4.6871231288576e-11,3426.4920854826,2378.9284511361,3.8909619450023e-11,2815.1648595697,1.5625080329039,4.6239018690331e-11,3343.3231131565,3685.6777440577,-1.0472171740883e-11,4370.6480757142,5730.9304655506,-8.69303634904,5.9646766692456e-12,3687.8558303504,4.7624596974383e-11,4386.7253098877
1.447,2892.3196837923,-7.8196858710466e-12,3418.9353531059,4482.1821198045,0.00025085687241244,1.1591458261989e-11,2894.8622978411,4.3951336927556e-11,3421.9481047546,2387.7854061388,3.9116743698331e-11,2816.6650556114,1.5660097063019,4.6288870306221e-11,3334.4868192034,3692.5447034184,-9.9831740096867e-12,4364.8603920712,5730.9304437949,-8.7066399533253,2.5287714630617e-12,3694.7315529739,4.3896958117073e-11,4380.9357800195
1.448,2897.6800720216,-8.095933645702e-12,3414.3801880433,4482.1808752868,0.00024872831863831,1.1565826421589e-11,2900.2331187297,4.4147721936505e-11,3417.3956832375,2396.6470279639,3.9186108351241e-11,2818.1374513263,1.5695113716973,4.6078995653842e-11,3325.6458584441,3699.4025742201,-1.0335919620186e-11,4359.0619194035,5730.9304008133,-8.7202110087791,2.4966044856467e-12,3701.5981977376,4.4147796529614e-11,4375.135436024
1.449,2903.0332862543,-7.9471637604023e-12,3409.81661874,4482.1796307844,0.00024658496431584,2.1076761863581e-11,2905.596780518,5.3628695668301e-11,3412.8348321685,2405.5132292496,3.9198268329127e-11,2819.5820321985,1.5730130290861,4.5983944083061e-11,3316.8003182403,3706.2513395117,-1.0146022910718e-11,4353.2526719831,5730.9303366561,-8.7337494819478,1.464233161802e-11,3708.4557476325,5.625214270083e-11,4369.3242921346
1.45,2908.3793133138,-7.9429136878861e-12,3405.2446564942,4482.1783862979,0.00024442683024972,1.8358007388558e-11,2910.9532699761,5.0976299136724e-11,3408.2655628064,2414.3839225892,3.9262807848689e-11,2820.9987839867,1.5765146784694,4.6004680100131e-11,3307.9502859988,3713.0909823644,-1.0140614042919e-11,4347.432664109,5730.930251375,-8.7472553393585,1.116756166708e-11,3715.304185673,5.2865998037555e-11,4363.5023626122
1.451,2913.7181400416,-8.5829399143478e-12,3400.6643126251,4482.1771418271,0.00024225386528087,1.4255593667328e-11,2916.3025738915,4.7104496518624e-11,3403.6878864302,2423.2590205314,3.9132238682099e-11,2822.3876927243,1.5800163198365,4.5775007916082e-11,3299.0958491708,3719.9214858718,-1.0957769414066e-11,4341.6019101064,5730.9301450212,-8.7607285477044,5.9314064076998e-12,3722.1434948955,4.7923029260211e-11,4357.6696617441
1.452,2919.0497532966,-8.1441485499933e-12,3396.0755984724,4482.1758973713,0.00024006613921301,1.2918873002615e-11,2921.644679069,4.5589926798983e-11,3399.1018143394,2432.1384355817,3.9394477263643e-11,2823.7487447193,1.5835179531934,4.587152012403e-11,3290.2370952508,3726.7428331501,-1.0397623734226e-11,4335.7604243272,5730.9300176452,-8.774169073608,4.2230030236623e-12,3728.9736583583,4.598949780027e-11,4351.8262038437
1.453,2924.3741399561,-8.3372891923617e-12,3391.4785253964,4482.1746529316,0.00023786351471244,1.4942424034214e-11,2926.9795723321,4.7762572976534e-11,3394.5073578553,2441.0220802029,3.947312745764e-11,2825.0819265551,1.5870195785334,4.582337547604e-11,3281.3741117759,3733.555007338,-1.0644200798549e-11,4329.9082211499,5730.9298692996,-8.7875768840377,6.8074903353255e-12,3735.7946591432,4.8763452477341e-11,4345.9720032526
1.4539999999999,2929.6912869147,-7.8679215920197e-12,3386.873104778,4482.1734085073,0.00023564605248794,2.1762330219138e-11,2932.3072405214,5.4303075491119e-11,3389.9045283188,2449.9098668162,3.9584090345823e-11,2826.3872250896,1.5905211958543,4.5843550310065e-11,3272.5069863249,3740.3579915968,-1.0045013432158e-11,4324.0453149794,5730.9297000352,-8.8009519457876,1.551612224121e-11,3742.6064803537,5.711391082297e-11,4340.1070743376
1.4549999999999,2935.0011810854,-8.628636000152e-12,3382.2593480187,4482.172164098,0.00023341375435848,1.9024355875363e-11,2937.6276704952,5.1824905478171e-11,3385.2933370915,2458.8017078019,3.9543163882216e-11,2827.6646274564,1.5940228051521,4.5562288317202e-11,3263.6358065174,3747.1517691103,-1.1016278167464e-11,4318.1717202471,5730.9295099027,-8.8142942258079,1.2014700866148e-11,3749.4091051156,5.3950132555824e-11,4334.231431492
1.4559999999999,2940.303809399,-8.3391661631627e-12,3377.6372665404,4482.1709197053,0.00023116656211641,1.8354711413954e-11,2942.9408491312,5.1058431788098e-11,3380.6737955573,2467.6975155005,3.9658767589379e-11,2828.9141210642,1.5975244064244,4.5588699482124e-11,3254.760660013,3753.936323085,-1.0646743903164e-11,4312.2874514108,5730.9292989559,-8.827603691209,1.1161756414968e-11,3756.2025165791,5.2971707749372e-11,4328.3450891379
1.4569999999999,2945.5991588042,-8.0044408601321e-12,3373.0068717855,4482.1696753269,0.00022890443187862,1.2244918187049e-11,2948.246763322,4.4812207763978e-11,3376.0459151175,2476.5972022132,4.0046846914998e-11,2830.1356935972,1.6010259996679,4.5769453331512e-11,3245.8816345104,3760.7116367504,-1.0219453755456e-11,4306.3925229547,5730.9290672433,-8.84088030916,3.3650963959797e-12,3762.9866979136,4.4997142296943e-11,4322.4480617198
1.4579999999999,2950.8872162677,-7.343219782241e-12,3368.368175217,4482.1684309647,0.00022662749825031,2.3830263283509e-11,2953.5453999815,5.607076912148e-11,3371.4097071975,2485.500680203,4.0123940628356e-11,2831.3293330151,1.604527584883,4.5975340721982e-11,3236.9988177466,3767.4776933583,-9.3753095564697e-12,4300.4869493894,5730.9288148192,-8.8541240466884,1.815714158887e-11,3769.761632315,5.9371412300391e-11,4316.540363713
1.4589999999999,2956.1679687745,-7.5862684190131e-12,3363.7211883182,4482.1671866175,0.00022433551009726,1.6344690358105e-11,2958.836746039,4.875084103767e-11,3366.7651832405,2494.4078616957,4.0172417475892e-11,2832.4950275535,1.6080291620612,4.5711837093343e-11,3228.1122974956,3774.2344761835,-9.6856099529585e-12,4294.5707452517,5730.9285417334,-8.867334871389,8.5954255865661e-12,3776.5273029987,5.002595126341e-11,4310.6220096162
1.4599999999999,2961.4414033274,-8.1221106229545e-12,3359.0659225929,4482.1659422852,0.00022202869388366,1.7008122341067e-11,2964.120788443,4.9541180619644e-11,3362.1123547113,2503.3186588804,4.0218699898231e-11,2833.6327657235,1.6115307312058,4.5660512697221e-11,3219.2221615685,3780.9819685237,-1.0369791830778e-11,4288.6439251048,5730.9282480378,-8.8805127503325,9.4443723674953e-12,3783.2836932046,5.1035142258071e-11,4304.6930139555
1.4609999999999,2966.7075069475,-7.6536103843505e-12,3354.4023895652,4482.1646979694,0.00021970688328565,1.6344707271659e-11,2969.3975141606,4.8658536401514e-11,3357.4512330963,2512.2329839107,4.0380742152846e-11,2834.7425363124,1.6150322923099,4.568806531019e-11,3210.3284978114,3787.7201536994,-9.7716591762609e-12,4282.706503538,5730.927933786,-8.8936576511746,8.6022100900807e-12,3790.030786196,4.9908373440932e-11,4298.7533912848
1.4619999999999,2971.966266674,-7.8387851765171e-12,3349.7306007795,4482.1634536679,0.00021737007239153,2.0423621127641e-11,2974.666910175,5.2727588788215e-11,3352.7818298999,2521.1507489053,4.0464079135993e-11,2835.8243283835,1.618533845372,4.5582240239261e-11,3201.4313941057,3794.4490150539,-1.0008133211059e-11,4276.7584951669,5730.9275990274,-8.9067695414387,1.380849080912e-11,3796.7685652564,5.5103666421474e-11,4292.8031561813
1.4629999999999,2977.2176695641,-7.9223988480592e-12,3345.0505678007,4482.1622093826,0.00021501836499738,1.2269451080127e-11,2979.9289634899,4.4596695260302e-11,3348.1041566492,2530.0718659493,4.0385810147481e-11,2836.8781312761,1.6220353903902,4.550396691394e-11,3192.5309383665,3801.1685359536,-1.011492278824e-11,4270.7999146334,5730.927243816,-8.9198483885995,3.3977742494584e-12,3803.4970136952,4.4722651797169e-11,4286.8423232515
1.4639999999999,2982.4617026936,-8.0060680307525e-12,3340.3623022138,4482.1609651124,0.00021265156169648,2.2441366473447e-11,2985.183661125,5.491323281509e-11,3343.4182248905,2538.9962470944,4.0513957640098e-11,2837.9039346059,1.6255369273587,4.5332355924632e-11,3183.6272185417,3807.8786997878,-1.0221795632148e-11,4264.8307766051,5730.9268682025,-8.9328941605958,1.6386020144921e-11,3810.2161148424,5.7894517305201e-11,4280.8709071261
1.4649999999999,2987.6983531562,-7.5949697919686e-12,3335.6658156241,4482.1597208572,0.00021026974366123,1.6349181123504e-11,2990.4309901192,4.866157390232e-11,3338.7240461904,2547.9238043603,4.0771505095682e-11,2838.9017282648,1.6290384562755,4.5479002508397e-11,3174.7203226117,3814.579489969,-9.6969585139384e-12,4258.8510957763,5730.9264722386,-8.9459068250882,8.6049925865361e-12,3816.9258520519,4.9912765760773e-11,4274.8889224626
1.4659999999999,2992.9276080641,-8.0447488948199e-12,3330.9611196573,4482.158476617,0.00020787303492398,1.5651989253296e-11,2995.6709375296,4.8167935352145e-11,3334.021632136,2556.8544497355,4.0599995587698e-11,2839.8715024213,1.632539977142,4.5274555805774e-11,3165.810338588,3821.2708899326,-1.0271263006789e-11,4252.8608868669,5730.9260559766,-8.9588863497662,7.7120696981292e-12,3823.6262087004,4.9282630927572e-11,4268.8963839447
1.4669999999999,2998.1494545475,-8.166124026987e-12,3326.2482259591,4482.1572323923,0.00020546121061216,1.7007204672348e-11,3000.9034904313,4.9555526782791e-11,3329.3109943356,2565.7880951778,4.07064061278e-11,2840.8132475204,1.6360414899502,4.5050672393965e-11,3156.8973545127,3827.9528831371,-1.0426277896602e-11,4246.8601646229,5730.9256194691,-8.971832702849,9.4430470387596e-12,3830.3171681882,5.1054407229634e-11,4262.893306283
1.4679999999999,3003.3638797553,-8.1323801859323e-12,3321.5271461955,4482.155988183,0.00020303427459112,1.4302437272712e-11,3006.1286359181,4.674773112015e-11,3324.592144417,2574.7246526158,4.0718085153602e-11,2841.7269542837,1.6395429947004,4.5110595814357e-11,3147.9814584572,3834.6254530642,-1.0383218590482e-11,4240.8489438166,5730.9251627681,-8.9847458523424,5.9876253261093e-12,3836.998713938,4.7469602901251e-11,4256.8797042136
1.4689999999999,3008.5708708546,-8.2577000792838e-12,3316.7978920525,4482.1547439887,0.00020059236146608,1.0884616558765e-11,3011.3463611012,4.3505485672335e-11,3319.8650940277,2583.6640339492,4.0766954048643e-11,2842.6126137096,1.643044491388,4.4841685920005e-11,3139.0627385218,3841.288583219,-1.0543298872845e-11,4234.8272392458,5730.9246859253,-8.9976257661673,1.6267326027886e-12,3843.6708293957,4.3330081710147e-11,4250.855592498
1.4699999999999,3013.7704150309,-7.6803736981379e-12,3312.0604752365,4482.1534998094,0.00019813533572233,1.4985845897542e-11,3016.5566531107,4.736060762317e-11,3315.1298548364,2592.6061510498,4.1120154156693e-11,2843.4702170733,1.6465459800102,4.489574163824e-11,3130.1412828346,3847.9422571295,-9.8062183373493e-12,4228.7950657345,5730.924188993,-9.0104724126721,6.859951842686e-12,3850.3334980302,4.8252369981572e-11,4244.8209859245
1.4709999999999,3018.9624994881,-7.7570103118596e-12,3307.3149074736,4482.1522556455,0.0001956632108886,2.4502465594683e-11,3021.7594990953,5.6791546725748e-11,3310.3864385318,2601.5509157627,4.1119951194046e-11,2844.2997559268,1.6500474605627,4.4908227310458e-11,3121.2171795505,3854.5864583472,-9.904087966417e-12,4222.7524381325,5730.9236720239,-9.0232857600987,1.9013644825261e-11,3856.9867033344,6.0293883601126e-11,4238.7758993078
1.4719999999999,3024.1471114486,-7.4821607243258e-12,3302.5612005103,4482.1510114968,0.00019317597411828,1.5667519365214e-11,3026.9548862218,4.7989071483984e-11,3305.6348568227,2610.4982399068,4.1255165082743e-11,2845.1012220993,1.6535489330487,4.5062320194744e-11,3112.2905168506,3861.2211704469,-9.5532054489311e-12,4216.6993713156,5730.9231350703,-9.0360657768031,7.7348249333253e-12,3863.6304288237,4.9055043013779e-11,4232.7203474878
1.4729999999999,3029.3242381534,-8.1512366301162e-12,3297.7993661129,4482.1497673631,0.000190673623365,1.4286715040168e-11,3032.1428016748,4.6843646149541e-11,3300.8751214375,2619.4480352757,4.1041827054944e-11,2845.8746076968,1.6570503974589,4.4740485621864e-11,3103.3613829412,3867.8463770266,-1.0407504719145e-11,4210.6358801851,5730.9225781841,-9.0488124312094,5.9711732086631e-12,3870.2646580367,4.7592689338127e-11,4226.6543453303
1.4739999999999,3034.4938668618,-7.7153457234136e-12,3293.0294160679,4482.1485232448,0.00018815617181644,1.8378246841033e-11,3037.3232326588,5.076052338876e-11,3296.1072441257,2628.4002136387,4.1277857000532e-11,2846.6199051028,1.6605518537909,4.4896625479851e-11,3094.4298660529,3874.462061708,-9.8510158363929e-12,4204.5619796683,5730.9220014185,-9.061525691806,1.1196738848585e-11,3876.889374536,5.2593920538135e-11,4220.5779077279
1.4749999999999,3039.655984852,-7.8485863641564e-12,3288.2513621816,4482.1472791408,0.00018562350589946,2.1093603426448e-11,3042.4961663946,5.3509965989434e-11,3291.3312366555,2637.3546867418,4.140540080938e-11,2847.3371069778,1.6640533020458,4.4753181195623e-11,3085.4960544398,3881.0682081359,-1.0021164453811e-11,4198.4776847182,5730.9214048244,-9.074205527324,1.4661467352683e-11,3883.5045619061,5.6104587121963e-11,4214.4910495973
1.4759999999999,3044.8105794204,-8.3011722495918e-12,3283.4652162803,4482.1460350521,0.00018307570235265,1.9723933424032e-11,3047.6615901238,5.2236887124885e-11,3286.5471108168,2646.3113663082,4.1226415510576e-11,2848.0262062595,1.6675547422176,4.4504617005559e-11,3076.5600363785,3887.6647999788,-1.0599045946469e-11,4192.3830103134,5730.9207884557,-9.0868519063352,1.2914605149184e-11,3890.1102037569,5.4479247502126e-11,4208.3937858831
1.4769999999999,3049.9576378823,-7.7559625388801e-12,3278.6709902103,4482.144790978,0.00018051278277653,3.4275689925201e-12,3052.819491105,3.5855857779404e-11,3281.7548784181,2655.2701640396,4.1528763067289e-11,2848.6871961632,1.6710561743065,4.4685640604447e-11,3067.6219001676,3894.2518209288,-9.9029673350515e-12,4186.2779714583,5730.9201523641,-9.0994647975639,-7.8903897304805e-12,3896.70628372,3.356368481755e-11,4202.2861315539
1.4779999999999,3055.0971475715,-7.8522015278804e-12,3273.8686958377,4482.14354692,0.00017793456800064,1.293994555604e-11,3057.969856617,4.5330776458907e-11,3276.9545512899,2664.2309916165,4.1640160070022e-11,2849.3200701815,1.6745575983055,4.4630800791201e-11,3058.6817341261,3900.8292547012,-1.0025903718347e-11,4180.1625831828,5730.9194966042,-9.1120441700761,4.2550711218392e-12,3903.2927854526,4.5661639400119e-11,4196.1681016067
1.4789999999999,3060.2290958406,-8.1569334620113e-12,3269.0583450483,4482.1423028758,0.00017534122923735,1.4971627236571e-11,3063.1126739544,4.7464395261376e-11,3272.1461412793,2673.1937606998,4.1538113226824e-11,2849.9248220846,1.6780590142144,4.4541736618497e-11,3049.7396265935,3907.3970850354,-1.0415036888478e-11,4174.0368605425,5730.9188212256,-9.1245899925672,6.8477584713733e-12,3909.8696926321,4.8386034762204e-11,4190.0397110598
1.4799999999999,3065.3534700608,-7.6548871408288e-12,3264.2399497481,4482.1410588471,0.00017273260743877,1.7037385391383e-11,3068.2479304335,4.9265052540909e-11,3267.3296602569,2682.158382931,4.18205695768e-11,2850.50144592,1.6815604220298,4.4820826737568e-11,3040.7956659279,3913.9552956939,-9.7740184001882e-12,4167.9008186184,5730.9181262835,-9.1371022342427,9.4876198911131e-12,3916.4369889629,5.0685317054544e-11,4183.9009749618
1.4809999999999,3070.4702576221,-8.1580853183993e-12,3259.4135218626,4482.1398148335,0.00017010879639656,2.7877249553915e-11,3073.3756133875,6.0398464875322e-11,3262.5051201112,2691.1247699335,4.1565322364545e-11,2851.0499360132,1.6850618217464,4.445254581098e-11,3031.8499405061,3920.5038704634,-1.0416570384031e-11,4161.7544725172,5730.91741183,-9.1495808640662,2.3325757991799e-11,3922.994658171,6.4901091445524e-11,4177.7519083842
1.4819999999999,3075.5794459334,-7.4545404571413e-12,3254.5790733371,4482.1385708339,0.00016746974597481,9.5660471731429e-12,3078.495710168,4.1737611630732e-11,3257.6725327502,2700.0928333135,4.1962864606726e-11,2851.5702869671,1.6885632133661,4.4673234729509e-11,3022.9025387219,3927.0427931539,-9.5183097514884e-12,4155.5978373708,5730.9166779164,-9.1620258512652,-5.0882041635614e-14,3929.5426840058,4.1074160565813e-11,4171.5925264239
1.4829999999999,3080.6810224222,-7.8811054904371e-12,3249.7366161368,4482.1373268506,0.00016481535055846,1.635307687875e-11,3083.6082081476,4.8646041188316e-11,3252.8319101043,2709.0624846602,4.215986067202e-11,2852.0624936624,1.692064596884,4.443106126073e-11,3013.9535489857,3933.5720475995,-1.0062978228476e-11,4149.4309283369,5730.9159245988,-9.1744371652293,8.6071176227942e-12,3936.0810502428,4.9895321381499e-11,4165.4228442065
1.4839999999999,3085.7749745349,-8.2394299716348e-12,3244.8861622464,4482.1360828814,0.00016214582842622,2.2440814397701e-11,3088.7130947147,5.4945979623827e-11,3247.9832641204,2718.0336355478,4.189300295554e-11,2852.5265512576,1.6955659722936,4.4254858458381e-11,3005.0030597237,3940.0916176579,-1.0520563586969e-11,4143.2537605983,5730.9151519272,-9.1868147750069,1.6386640308563e-11,3942.609740678,5.7939600166257e-11,4159.2428768787
1.4849999999999,3090.8612897369,-8.1355235048708e-12,3240.0277236704,4482.1348389266,0.00015946092446484,1.6332262799124e-11,3093.8103572779,4.8766159947006e-11,3243.126606767,2727.0061975353,4.2042969800038e-11,2852.962455189,1.6990673395976,4.4229901859094e-11,2996.0511593767,3946.6014872106,-1.0387933568889e-11,4137.0663493633,5730.9143599549,-9.1991586503401,8.5871067201371e-12,3949.1287391327,5.0048961502958e-11,4153.0526396152
1.4859999999999,3095.9399555123,-8.0546957992311e-12,3235.1613124329,4482.133594987,0.0001567607035895,1.2951426389685e-11,3098.8999832653,4.5288832579982e-11,3238.2619500327,2735.9800821681,4.2258249850768e-11,2853.3702011708,1.7025686987929,4.4183307186529e-11,2987.0979363992,3953.1016401632,-1.0284779972114e-11,4130.8687098656,5730.9135487361,-9.211468760647,4.265648598234e-12,3955.6380294527,4.5608992277346e-11,4146.8521476165
1.4869999999999,3101.0109593643,-8.1126043383062e-12,3230.2869405777,4482.1323510619,0.0001540451977462,1.6339202126708e-11,3103.9819601226,4.8721267038171e-11,3233.3893059249,2744.9552009784,4.2250100119878e-11,2853.749785195,1.7060700498707,4.4229712774235e-11,2978.1434792591,3959.5920604451,-1.0358720825554e-11,4124.6608573638,5730.9127183229,-9.2237450754668,8.5951931336203e-12,3962.1375955064,4.9991908182556e-11,4140.6414161074
1.4879999999999,3106.0742888149,-7.7510810270187e-12,3225.4046201681,4482.1311071519,0.00015131442125949,1.0239148504759e-11,3109.0562753154,4.2466931447077e-11,3228.5086864714,2753.9314654863,4.2415997797418e-11,2854.1012035317,1.709571392832,4.4103349444713e-11,2969.187876436,3966.0727320096,-9.8971664197478e-12,4118.4428071423,5730.9118687693,-9.235987564449,8.0662993645619e-13,3968.6274211872,4.2006009781659e-11,4134.4204603389
1.4889999999999,3111.1299314053,-8.2629528219691e-12,3220.5143632869,4482.1298632568,0.00014856820996556,1.835565293512e-11,3114.1229163275,5.0892015428239e-11,3223.6201037192,2762.9087872008,4.2273193626152e-11,2854.4244527289,1.713072727673,4.3713001968149e-11,2960.2312164211,3972.5436388341,-1.055081716439e-11,4112.2145745104,5730.9110001279,-9.2481961975523,1.1173865652192e-11,3975.1074904114,5.276398762355e-11,4128.1892955867
1.4899999999999,3116.1778746956,-8.2867671058473e-12,3215.6161820367,4482.128619376,0.00014580669824227,1.6335281217972e-11,3119.1818706616,4.8770969467843e-11,3218.7235697347,2771.8870776204,4.2384061538225e-11,2854.7195296126,1.7165740543945,4.3837979253614e-11,2951.2735877158,3979.0047649201,-1.0581230336371e-11,4105.9761748026,5730.9101124516,-9.2603709444356,8.5884719475127e-12,3981.5777871193,5.0055776364133e-11,4121.9479371517
1.4909999999999,3121.2181062649,-8.2063592032888e-12,3210.7100885392,4482.1273755096,0.00014302979400327,8.855262009777e-12,3124.2331258396,4.1350620844094e-11,3213.8190966044,2780.8662482342,4.2358680799048e-11,2854.986431287,1.7200753729868,4.3841909269648e-11,2942.315078831,3985.4560942929,-1.047861797332e-11,4099.7276233785,5730.9092057935,-9.2725117751323,-9.589282493061e-13,3988.0382952757,4.0580911894739e-11,4115.6964003603
1.4919999999999,3126.2506137116,-8.3103142423102e-12,3205.796094936,4482.1261316587,0.00014023750077286,1.428127104422e-11,3129.2766694034,4.6836894172092e-11,3208.9066964351,2789.8462105224,4.2379948508864e-11,2855.2251551342,1.7235766834536,4.3676611806431e-11,2933.3557782864,3991.8976110022,-1.0611379830383e-11,4093.4689356229,5730.9082802084,-9.2846186596422,5.9688452097584e-12,3994.4889988702,4.7586440864167e-11,4109.4347005654
1.4929999999999,3131.2753846528,-8.4131764055417e-12,3200.8742133877,4482.124887822,0.00013742983378506,1.6992785650816e-11,3134.312488912,4.9641557357816e-11,3203.9863813513,2798.8268759577,4.2292862788285e-11,2855.4356988145,1.7270779857864,4.3398718646559e-11,2924.3957746093,3998.3292991218,-1.0742781664241e-11,4087.2001269456,5730.9073357481,-9.2966915680255,9.4302144218461e-12,4000.9298819146,5.1167856410239e-11,4103.1628531426
1.4939999999999,3136.2924067253,-8.288019576197e-12,3195.9444560747,4482.1236439996,0.00013460679497257,1.0879934540103e-11,3139.3405719445,4.3525148762935e-11,3199.0581634982,2807.8081560059,4.250455716559e-11,2855.6180602663,1.7305792799866,4.3411733409437e-11,2915.4351563338,4004.7511427497,-1.0583037918233e-11,4080.9212127815,5730.9063724661,-9.3087304704493,1.6236265804048e-12,4007.3609284457,4.3357884123296e-11,4096.8808734942
1.4949999999999,3141.3016675846,-8.9348424492375e-12,3191.0068351965,4482.1224001922,0.00013176830736938,1.8336015431691e-11,3144.3609060996,5.1140884495954e-11,3194.1220550407,2816.7899621267,4.2405625885755e-11,2855.7722377063,1.73408056605,4.3168340430055e-11,2906.4740120003,4011.163126008,-1.1408984867955e-11,4074.6322085904,5730.9053904166,-9.3207353372632,1.1144956485465e-11,4013.7821225253,5.3082646785108e-11,4090.5887770479
1.4959999999999,3146.3031549057,-8.346004443105e-12,3186.0613629721,4482.1211563995,0.00012891437518192,1.6322665007812e-11,3149.3734789944,4.8920235917738e-11,3189.1780681629,2825.7722057746,4.2616359226255e-11,2855.898229629,1.7375818439729,4.3214119782586e-11,2897.5124301541,4017.5652330433,-1.0657141835679e-11,4068.333129857,5730.9043896529,-9.3327061387988,8.5702035745872e-12,4020.1934482383,5.0247193558728e-11,4084.2865792558
1.4969999999999,3151.2968563826,-9.2127590278768e-12,3181.1080516397,4482.1199126209,0.00012604499988811,1.6271409566948e-11,3154.3782782649,4.9323540911306e-11,3184.2262150677,2834.7547984,4.2391008238385e-11,2855.9960348074,1.7410831137515,4.2852127228599e-11,2888.5504993449,4023.9574480264,-1.1763964802292e-11,4062.0239920911,5730.9033702277,-9.3446428454717,8.5083086409643e-12,4026.5948896938,5.076232489909e-11,4077.9742955946
1.4979999999999,3156.2827597289,-9.1460797269072e-12,3176.146913457,4482.1186688569,0.00012316017523517,1.7641495469317e-11,3159.3752915671,5.0586848512196e-11,3179.2665079782,2843.7376514498,4.244008356552e-11,2856.0656522926,1.7445843753854,4.2918345960485e-11,2879.5883081257,4030.3397551524,-1.1678866207454e-11,4055.7048108272,5730.9023321952,-9.3565454277948,1.0258029668753e-11,4032.9864310258,5.2375614262301e-11,4071.6519415669
1.4989999999999,3161.2608526772,-9.0889344661615e-12,3171.1779607007,4482.1174251079,0.00012025984995034,1.5609322428362e-11,3164.3645065761,4.8550180802714e-11,3174.2989591369,2852.7206763684,4.239407522949e-11,2856.107081414,1.7480856288705,4.2775068209711e-11,2870.625945052,4036.7121386409,-1.1605938432524e-11,4049.3756016247,5730.9012756096,-9.3684138564229,7.6603706017364e-12,4039.3680563929,4.9775059074442e-11,4065.3195327004
1.4999999999999,3166.2311229795,-9.3395742528646e-12,3166.2012056669,4482.116181373,0.00011734410259123,9.4922034642175e-12,3169.3459109854,4.2411541726489e-11,3169.3235808049,2861.7037845986,4.2449603727956e-11,2856.120321779,1.7515868742023,4.2778450920489e-11,2861.6634986812,4043.0745827359,-1.1926043486099e-11,4043.0363800678,5730.9002005235,-9.380248101927,-1.4492053390658e-13,4045.7397499767,4.1936529769637e-11,4058.9770845466
1.5009999999999,3171.1935584072,-8.5505144631348e-12,3161.2166606709,4482.1149376517,0.00011441286733316,1.2237366068396e-11,3174.3194925082,4.4879221866578e-11,3164.3403852626,2870.6868875823,4.2680547464313e-11,2856.1053732734,1.7550881113809,4.2957475250571e-11,2852.701057571,4049.4270717058,-1.0918512621805e-11,4036.6871617653,5730.89910699,-9.3920481351457,3.3604369287232e-12,4052.1014959837,4.5087728689497e-11,4052.6246126819
1.5019999999999,3176.148146751,-8.8825509447776e-12,3156.2243380469,4482.1136939465,0.00011146609790558,1.5622078283761e-11,3179.2852388787,4.8322855699529e-11,3159.3493848119,2879.6698967617,4.2732899684095e-11,2856.0622360611,1.7585893404007,4.2826043926414e-11,2843.7387102794,4055.7695898437,-1.1342551897719e-11,4030.3279623511,5730.8979950661,-9.4038139269862,7.6858129235968e-12,4058.4532786472,4.9485201526756e-11,4046.2621327105
1.5029999999999,3181.0948758213,-9.0873211733289e-12,3151.2242501486,4482.1124502543,0.00010850375974769,1.4932221691771e-11,3184.2431378468,4.7801643719703e-11,3154.3505917702,2888.6527235799,4.2861092279522e-11,2855.9909105842,1.7620905612622,4.2594802684981e-11,2834.7765453632,4062.102121467,-1.1604071870064e-11,4023.9587974833,5730.8968648014,-9.41554544841,6.8005306247398e-12,4064.7950822202,4.8819761601371e-11,4039.8896602564
1.5039999999999,3186.0337334476,-9.0978058420177e-12,3146.2164093487,4482.1112065781,0.00010552588526025,1.3559753580389e-11,3189.1931771861,4.6518483943353e-11,3149.344018478,2897.6352794818,4.2807745195828e-11,2855.8913975632,1.7655917739565,4.2406587789923e-11,2825.8146513776,4068.424650918,-1.1617502099215e-11,4017.5796828451,5730.8957162539,-9.4272426703943,5.0502805062913e-12,4071.1268909856,4.7181355176951e-11,4033.5072109737
1.5049999999999,3190.964707479,-9.2331559065073e-12,3141.2008280388,4482.1099629143,0.00010253256323267,8.8103773408788e-12,3194.135344685,4.1742707814624e-11,3144.3296772907,2906.6174759151,4.2691478824297e-11,2855.7636979965,1.7690929784856,4.2181354763249e-11,2816.8531168747,4074.7371625633,-1.1790405457512e-11,4011.1906341438,5730.894549473,-9.4389055639131,-1.0145122589234e-12,4077.4486892452,4.1082985104135e-11,4027.1148005354
1.5059999999999,3195.8877857841,-9.3317679972227e-12,3136.1775186297,4482.1087192658,9.9523588914963e-05,1.4904393691451e-11,3199.0696281554,4.8045574029681e-11,3139.3075805873,2915.5992243309,4.2725400474508e-11,2855.607813161,1.7725941748452,4.2056604726559e-11,2807.8920304033,4081.0396407943,-1.1916377606891e-11,4004.7916671118,5730.8933645159,-9.4505341004136,6.7662490194076e-12,4083.7604613305,4.9131661412904e-11,4020.7124446448
1.5069999999999,3200.8029562512,-9.1694013493182e-12,3131.1464935511,4482.1074756316,9.649900664499e-05,1.2205692186129e-11,3203.9960154266,4.5151655851672e-11,3134.2777407632,2924.5804361852,4.269558231268e-11,2855.4237446115,1.7760953630335,4.2144798068078e-11,2798.9314805076,4087.3320700273,-1.1709098968193e-11,3998.3827975057,5730.8921614358,-9.4621282511012,3.32063022912e-12,4090.062191595,4.5436330045612e-11,4014.3001590269
1.5079999999999,3205.7102067879,-9.3699249748003e-12,3126.1077652519,4482.1062320117,9.3458948867919e-05,1.017160097469e-11,3208.9144943478,4.310442324254e-11,3129.2401702336,2933.5610229389,4.3041390763998e-11,2855.2114941812,1.7795965430457,4.2023771615329e-11,2789.9715557266,4093.614434703,-1.1965196194952e-11,3991.9640411065,5730.8909402866,-9.4736879871576,7.2060673400598e-13,4096.3538644174,4.2822174625701e-11,4007.8779594316
1.5089999999999,3210.6095253216,-9.4538231409924e-12,3121.0613461998,4482.1049884067,9.0403208673706e-05,1.2200936875401e-11,3213.8250527879,4.5202455927623e-11,3124.1948814332,2942.5408960593,4.2878874929875e-11,2854.9710639813,1.7830977148797,4.2001555011772e-11,2781.0123445927,4099.8867192872,-1.2072384758532e-11,3985.53541372,5730.8897011231,-9.4852132802816,3.3157660644934e-12,4102.6354642012,4.5501445493368e-11,4001.4458616341
1.5099999999999,3215.5008997993,-8.9274733439115e-12,3116.0072488813,4482.1037448149,8.7331873260155e-05,1.290104394841e-11,3218.7276786341,4.5656277369854e-11,3119.1418868141,2951.5199670209,4.3145576521242e-11,2854.7024564011,1.7865988785326,4.207903296638e-11,2772.0539356316,4106.1489082702,-1.1400269617212e-11,3979.096931176,5730.8884439973,-9.4967041018786,4.2120681942315e-12,4108.9069753733,4.6081094669248e-11,3995.0038814324
1.5109999999999,3220.3843181875,-8.9166625472092e-12,3110.945485802,4482.1025012373,8.424496547832e-05,2.2415702974343e-11,3223.6223597951,5.5138747734329e-11,3114.0811988493,2960.4981473061,4.3081501907571e-11,2854.4056741081,1.7901000339996,4.2155966217816e-11,2763.0964173609,4112.4009861675,-1.1386506321154e-11,3972.6486093291,5730.8871689647,-9.5081604235255,1.6361230079087e-11,4115.1683823875,5.8190275514791e-11,3988.552034651
1.5119999999999,3225.2597684725,-9.2411564511785e-12,3105.8760694864,4482.1012576741,8.1142357657882e-05,2.443642293723e-11,3228.5090841983,5.7339322959843e-11,3109.0128300304,2969.475348406,4.3249650388821e-11,2854.0807200479,1.7936011812821,4.1830643983387e-11,2754.1398782893,4118.6429375193,-1.1800962984587e-11,3966.1904640578,5730.8858760799,-9.5195822170771,1.8940025763026e-11,4121.4196697216,6.100056050562e-11,3982.0903371384
1.5129999999999,3230.1272386604,-8.8150146904109e-12,3100.7990124774,4482.1000141257,7.8024182698755e-05,1.1554916745649e-11,3233.3878397911,4.427000953322e-11,3103.9367928676,2978.4514818217,4.3263076281164e-11,2853.7275974439,1.7971023203712,4.2094870124354e-11,2745.1844069159,4124.8747468907,-1.1256835741325e-11,3959.7225112653,5730.8845653975,-9.5309694541378,2.489545895823e-12,4127.6608218786,4.4311153704624e-11,3975.6188047674
1.5139999999999,3234.9867167769,-8.6402829335697e-12,3095.7143273373,4482.0987705904,7.4890307018904e-05,1.3598033723333e-11,3238.258614539,4.6210184116713e-11,3098.8530998891,2987.4264590646,4.3618002439072e-11,2853.3463097978,1.800603451268,4.1975211501066e-11,2736.230091729,4131.0963988719,-1.1033705199504e-11,3953.2447668786,5730.8832369697,-9.5423221067362,5.1005337106669e-12,4133.8918233842,4.6788894807193e-11,3969.1374534336
1.5149999999999,3239.8381908676,-8.4382396903226e-12,3090.6220266468,4482.0975270702,7.1740679459253e-05,1.9033975784399e-11,3243.12139643,5.1618037968937e-11,3093.7617636442,2996.4001916577,4.3505395466714e-11,2852.9368608891,1.8041045739693,4.1906923244073e-11,2727.2770212057,4137.3078780781,-1.0775741410285e-11,3946.7572468494,5730.8818908535,-9.5536401468864,1.2044945769951e-11,4140.1126587928,5.3694926109571e-11,3962.6462990604
1.5159999999999,3244.6816489977,-8.5984726283517e-12,3085.5221230052,4482.0962835631,6.8575480099753e-05,1.3606758948737e-11,3247.9761734689,4.6134701961464e-11,3088.6627966985,3005.3725911364,4.3676573642515e-11,2852.4992547754,1.8076056884715,4.1978441556179e-11,2718.3252838105,4143.5091691494,-1.0980404085981e-11,3940.2599671532,5730.8805271007,-9.5649235463868,5.1131893857859e-12,4146.3233126801,4.6692741687004e-11,3956.1453575913
1.5169999999999,3249.5170792525,-8.9716706286325e-12,3080.414629031,4482.0950400711,6.5394514763284e-05,2.1727383781034e-11,3252.8229336829,5.4571568184475e-11,3083.5562116389,3014.3435690492,4.3680292889647e-11,2852.033495792,1.8111067947722,4.1594223725017e-11,2709.3749679949,4149.7002567512,-1.145703670824e-11,3933.7529437897,5730.8791457683,-9.5761722776052,1.548081367958e-11,4152.5237696499,5.7466945264928e-11,3949.6346449983
1.5179999999999,3254.3444697371,-8.6423576628469e-12,3075.2995573609,4482.0937965927,6.2197915667639e-05,9.5056905055624e-12,3257.6616651168,4.2243409291431e-11,3078.442021069,3023.3130369587,4.3919676923077e-11,2851.5395885522,1.8146078928677,4.1730797636919e-11,2700.4261621962,4155.8811255739,-1.1036532798769e-11,3927.236192783,5730.8777469089,-9.5873863125727,-1.2064047677507e-13,4158.7140143287,4.1723691342199e-11,3943.1141772739
1.5189999999999,3259.1638085762,-8.4803900013419e-12,3070.1769206505,4482.0925531282,5.8985536270484e-05,9.5242438068188e-12,3262.4923558363,4.2126226552225e-11,3073.3202376123,3032.2809064426,4.4166043218496e-11,2851.017537947,1.8181089827551,4.1674832855498e-11,2691.4789548369,4162.0517603331,-1.0829767638221e-11,3920.7097301807,5730.8763305775,-9.5985656237647,-1.0272425271518e-13,4164.894031369,4.1574147770229e-11,3936.5839704371
1.5199999999999,3263.9750839148,-8.6149629097143e-12,3065.0467315738,4482.0913096783,5.5757372251719e-05,1.3588814101739e-11,3267.3149939273,4.6281364591422e-11,3068.1908739112,3041.2470890942,4.4034137447468e-11,2850.4673491453,1.8216100644311,4.1575244115466e-11,2682.5334343233,4168.2121457695,-1.100163363188e-11,3914.173572055,5730.8748968294,-9.6097101835618,5.0923909186706e-12,4171.0638054491,4.6880536778982e-11,3930.0440405309
1.5209999999999,3268.7782839177,-8.7895732359122e-12,3059.9090028236,4482.0900662414,5.2513518880914e-05,1.9024477306007e-11,3272.129567494,5.1691245901708e-11,3063.0539426252,3050.2114965236,4.3994113907431e-11,2849.8890275935,1.8251111378931,4.1563221614416e-11,2673.5896890455,4174.3622666492,-1.1224677437527e-11,3907.6277345017,5730.8734457173,-9.6208199642979,1.203300740299e-11,4177.2233212705,5.3789316750708e-11,3923.4944036202
1.5219999999999,3273.5733967697,-8.7130337667052e-12,3054.7637471112,4482.0888228192,4.9253926135862e-05,1.2904445741146e-11,3276.9360646628,4.5671809216496e-11,3057.9094564349,3059.1740403586,4.399248673681e-11,2849.282579016,1.8286122031377,4.136984765174e-11,2664.6478073757,4180.5021077636,-1.1126953525231e-11,3901.0722336406,5730.8719772981,-9.6318949385866,4.215118705464e-12,4183.3725635627,4.6102345031829e-11,3916.9350757974
1.5229999999999,3278.3604106754,-8.5275189687373e-12,3049.6109771663,4482.0875794103,4.5978471916897e-05,6.123630682392e-12,3281.7344735777,3.8773130973252e-11,3052.7574280373,3068.1346322453,4.4471104750088e-11,2848.6480094144,1.8321132601634,4.150487852711e-11,2655.7078776676,4186.6316539292,-1.0890087442927e-11,3894.5070856155,5730.8704916246,-9.6429350792111,-4.4442036856163e-12,4189.5115170776,3.729248160278e-11,3910.3660731761
1.5239999999999,3283.1393138599,-8.6669352250546e-12,3044.4507057372,4482.0863360159,4.2687378822848e-05,1.1553036305401e-11,3286.5247824048,4.4245150078448e-11,3047.5978701496,3077.093183849,4.4165961686493e-11,2847.9853250681,1.8356143089647,4.1405547393514e-11,2646.7699882559,4192.750889988,-1.1068201910547e-11,3887.9323065939,5730.8689887532,-9.6539403586083,2.4920707858422e-12,4195.6401665949,4.4280675480513e-11,3903.7874118956
1.5249999999999,3287.9100945679,-8.5027193619247e-12,3039.2829455905,4482.0850926353,3.9380400153277e-05,1.4279386700844e-11,3291.3069793285,4.6853712749872e-11,3042.4307955067,3086.0496068556,4.4414750523247e-11,2847.2945325339,1.8391153495388,4.155989007798e-11,2637.8342274548,4198.8598008075,-1.0858512006218e-11,3881.3479127674,5730.8674687377,-9.6649107498934,5.9768197335774e-12,4201.7584969177,4.7612097424377e-11,3897.1991081181
1.5259999999999,3292.6727410644,-8.6097795559681e-12,3034.1077095114,4482.0838492683,3.6057633678865e-05,1.9013684723901e-11,3296.0810525539,5.1777616048854e-11,3037.2562168621,3095.0038129716,4.4395342436998e-11,2846.575638646,1.8426163818879,4.1259350103129e-11,2628.9006835576,4204.9583712803,-1.0995267196723e-11,3874.753920351,5730.8659316328,-9.6758462258324,1.2023942605466e-11,4207.8664928751,5.3900385890704e-11,3890.6011780301
1.5269999999999,3297.4272416346,-8.4753801199433e-12,3028.9250103035,4482.0826059158,3.2718978900448e-05,1.2221347198138e-11,3300.8469903067,4.4964464443464e-11,3032.0741469886,3103.9557139257,4.451400012484e-11,2845.828650516,1.8461174060029,4.1193951028085e-11,2619.9694448356,4211.0465863248,-1.0823664881032e-11,3868.1503455837,5730.8643774945,-9.686746759529,3.3497475626643e-12,4213.9641393225,4.519963483357e-11,3883.9936378428
1.5279999999999,3302.1735845837,-8.2432984049863e-12,3023.7348607885,4482.0813625766,2.9364606916715e-05,1.1554967919991e-11,3305.6047808314,4.4209532736039e-11,3026.884598676,3112.9052214694,4.4769932552868e-11,2845.0535755327,1.849618421882,4.1227070368688e-11,2611.0405995373,4217.1244308847,-1.0527335947419e-11,3861.5372047281,5730.8628063761,-9.697612323825,2.495067520647e-12,4220.0514211388,4.42356437938e-11,3877.3765037891
1.5289999999999,3306.9117582372,-8.2786000277224e-12,3018.5372738067,4482.080119251,2.5994306383836e-05,9.5127933308348e-12,3310.3544123934,4.2219885573735e-11,3021.6875847336,3121.8522473778,4.4820357494868e-11,2844.2504213623,1.853119429524,4.1184463825394e-11,2602.1142358876,4223.1918899293,-1.0572452635582e-11,3854.9145140706,5730.8612183331,-9.7084428921396,-1.1260263554913e-13,4226.1283232297,4.1694818604665e-11,3870.7497921275
1.5299999999999,3311.6417509407,-8.832483355814e-12,3013.3322622165,4482.0788759393,2.2608259769186e-05,1.4942004231133e-11,3315.0958732785,4.7696040693379e-11,3016.4831179892,3130.7967034504,4.4592140743815e-11,2843.4191959477,1.8566204289265,4.1238037290503e-11,2593.1904420867,4229.2489484536,-1.1279820827381e-11,3848.2822899209,5730.8596134209,-9.719238437474,6.823755969998e-12,4232.1948305266,4.8688469922453e-11,3864.1135191398
1.5309999999999,3316.3635510602,-8.5514720304936e-12,3008.1198388948,4482.0776326414,1.9206213664802e-05,1.2228627832567e-11,3319.8291517922,4.4920880383492e-11,3011.2712112886,3139.7385015125,4.4708152110995e-11,2842.5599075094,1.8601214200833,4.1099801513511e-11,2584.2693063097,4235.2955914779,-1.0920986337482e-11,3841.6405486127,5730.8579916942,-9.7299989334737,3.3590118533877e-12,4238.2509279857,4.5144461953417e-11,3857.4677011317
1.5319999999999,3321.0771469817,-8.832483355814e-12,3002.9000167364,4482.0763893575,1.5788449445608e-05,2.1049067003287e-11,3324.5542362607,5.3830849500169e-11,3006.0518774962,3148.6775534154,4.4842780530518e-11,2841.6725645443,1.8636224029952,4.0913838289525e-11,2575.350916705,4241.3318040486,-1.1279893685767e-11,3834.9893065028,5730.8563532087,-9.7407243531862,1.4623333793873e-11,4244.2966005895,5.6523486412219e-11,3850.8123544323
1.5329999999999,3325.7825271117,-8.7970637718815e-12,2997.6728086546,4482.0751460871,1.2354671866888e-05,1.0849845327732e-11,3329.2711150293,4.374100474186e-11,3000.8251294941,3157.6137710376,4.4659152244331e-11,2840.7571758267,1.867123377654,4.0777870663478e-11,2566.435361394,4247.3575712373,-1.1234721486453e-11,3828.3285799718,5730.8546980185,-9.7514146704816,1.5994445351497e-12,4250.331833345,4.3637859818701e-11,3844.1474953939
1.5339999999999,3330.4796798771,-8.6945277366635e-12,2992.4382275807,4482.0739028302,8.9049943881037e-06,1.5614340549697e-11,3333.9797764647,4.8398463188548e-11,2995.5909801835,3166.5470662856,4.499437107619e-11,2839.8137504074,1.870624344061,4.0713148130589e-11,2557.5227284703,4253.3728781416,-1.1103805375168e-11,3821.6583854236,5730.8530261791,-9.7620698587966,7.6840964147173e-12,4256.3566112858,4.9586061819096e-11,3837.4731403931
1.5349999999999,3335.168593725,-8.7645238289191e-12,2987.1962864643,4482.0726595873,5.4395220558945e-06,1.4931915079397e-11,3338.6802089537,4.7758850693636e-11,2990.3494424835,3175.4773510949,4.4971882121048e-11,2838.8422976138,1.874125302213,4.0495204411961e-11,2548.6131059983,4259.377709885,-1.1193240778695e-11,3814.9787392857,5730.8513377463,-9.7726898916647,6.8103318123791e-12,4262.3709194714,4.8769331455201e-11,3830.78930583
1.5359999999999,3339.8492571229,-9.4544441719968e-12,2981.9469982728,4482.0714163574,1.958009079317e-06,1.8972838057574e-11,3343.3724009025,5.212018924089e-11,2985.1005293309,3184.4045374307,4.4862959701353e-11,2837.8428270504,1.8776262521035,4.0261589201451e-11,2539.7065820128,4265.3720516165,-1.2074386629424e-11,3808.2896580088,5730.849632774,-9.7832747431538,1.1972317234821e-11,4268.3747429855,5.4339412310089e-11,3824.0960081273
1.5369999999999,3344.5216585587,-9.3399142586659e-12,2976.6903759919,4482.0701731414,-1.5393842431877e-06,2.2364990068247e-11,3348.0563407391,5.5550950124605e-11,2979.8442536819,3193.3285372889,4.4838710869244e-11,2836.8153485976,1.881127193735,4.0231544658209e-11,2530.8032445178,4271.355888511,-1.1928149440399e-11,3801.5911580669,5730.8479113187,-9.7938243868997,1.6306174292768e-11,4274.3680669395,5.8721065336609e-11,3817.3932637326
1.5379999999999,3349.1857865408,-9.0740852332072e-12,2971.4264326254,4482.0689299398,-5.0527972916825e-06,1.4897210201537e-11,3352.7320169114,4.8088679739655e-11,2974.5806285104,3202.2492626968,4.4749126279497e-11,2835.7598724127,1.8846281270986,4.0151352728723e-11,2521.9031814861,4277.3292057694,-1.1588695281173e-11,3794.8832559575,5730.8461734363,-9.80433879701,6.7672759757054e-12,4280.3508764702,4.9190946455058e-11,3810.6810891166
1.5389999999999,3353.841629598,-9.1324690865147e-12,2966.1551811949,4482.0676867502,-8.5821129687247e-06,1.7625623183193e-11,3357.3994178857,5.067128661107e-11,2969.3096668067,3211.1666257141,4.5289522999925e-11,2834.676408929,1.8881290521972,4.0202418651047e-11,2513.0064808578,4283.2919886184,-1.1663316146215e-11,3788.1659682012,5730.8444191793,-9.8148179473465,1.0251629406488e-11,4286.3231567377,5.2489406918155e-11,3803.9595007709
1.5399999999999,3358.4891762798,-9.3315563609586e-12,2960.8766347401,4482.0664435753,-1.2127362992942e-05,8.7773096082988e-12,3362.0585321524,4.201658031916e-11,2964.0313815824,3220.0805384337,4.5109033695867e-11,2833.5649688563,1.8916299690217,3.9748432843767e-11,2504.11323054,4289.2442223108,-1.1917633546688e-11,3781.4393113418,5730.8426486064,-9.8252618120566,-1.0509293088545e-12,4292.2848929324,4.1436285826146e-11,3797.228515215
1.5409999999999,3363.1284151558,-9.3783314447649e-12,2955.5908063185,4482.0652004135,-1.5688627513555e-05,1.4213245164152e-11,3366.7093482193,4.7440104795904e-11,2958.7457858645,3228.9909129828,4.4959095474306e-11,2832.4255631804,1.8951308775738,3.9674306374915e-11,2495.2235184055,4295.1858921251,-1.1977380892647e-11,3774.7033019464,5730.8408617712,-9.8356703654287,5.8917072609521e-12,4298.2360702668,4.8363011512231e-11,3790.4881489877
1.5419999999999,3367.7593348166,-9.3016844227023e-12,2950.2977090058,4482.0639572655,-1.9265876858299e-05,1.6932134513925e-11,3371.3518546162,5.0058173751977e-11,2953.4528926995,3237.8976615234,4.5071288715115e-11,2831.2582031629,1.8986317778484,3.9752212806221e-11,2486.3374322923,4301.1169833661,-1.1879566774731e-11,3767.9579566051,5730.8390587299,-9.8460435817021,9.3707229475992e-12,4304.1766739814,5.1706808973373e-11,3783.7384186534
1.5429999999999,3372.3819238731,-9.5848745607086e-12,2944.9973558953,4482.0627141305,-2.2859148089083e-05,1.8275016049063e-11,3375.9860398925,5.1646156101759e-11,2948.1527151507,3246.8006962533,4.5002813975348e-11,2830.0629003416,1.9021326698441,3.9506573359938e-11,2477.4550600025,4307.0374813645,-1.2241326008411e-11,3761.2032919311,5730.8372395372,-9.8563814352867,1.1081636476507e-11,4310.1066893415,5.3735033783697e-11,3776.9793407981
1.5439999999999,3376.996170957,-9.184222826697e-12,2939.6897600983,4482.0614710088,-2.6468405053492e-05,1.3542262797261e-11,3380.6118926187,4.6705792879076e-11,2942.8452663004,3255.6999294071,4.5249380631329e-11,2828.8396665299,1.9056335535529,3.9567640830462e-11,2468.5764893014,4312.9473714771,-1.1729655441384e-11,3754.4393245608,5730.8354042489,-9.866683900587,5.0364356782295e-12,4316.0261016391,4.7425551333302e-11,3770.2109320322
1.5449999999999,3381.6020647204,-8.9534560321347e-12,2934.3749347438,4482.060227901,-3.0093669920461e-05,2.0345414589173e-11,3385.2294013866,5.3368860546132e-11,2937.5305592489,3264.595273257,4.5193502586083e-11,2827.5885138169,1.9091344289778,3.9596634131278e-11,2459.7018079169,4318.8466390869,-1.1434964086732e-11,3747.6660711534,5730.8335529217,-9.8769509521714,1.3727192993418e-11,4321.934896193,5.5935505359483e-11,3763.4332089893
1.5459999999999,3386.1995938362,-8.9377047429728e-12,2929.0528929786,4482.0589848065,-3.3735022952897e-05,1.4918634903827e-11,3389.8385548069,4.7876570763439e-11,2932.2086071135,3273.4866401136,4.5427023254163e-11,2826.3094545673,1.9126352961134,3.971220748078e-11,2450.8311035383,4324.735269603,-1.1414896805562e-11,3740.8835483912,5730.8316856101,-9.8871825647667,6.7975330225734e-12,4327.8330583464,4.8921076391262e-11,3756.6461883251
1.5469999999999,3390.7887469981,-8.5208125277791e-12,2923.7236479673,4482.057741725,-3.7392418676063e-05,1.832893298942e-11,3394.4393415118,5.1111956680949e-11,2926.8794230297,3282.3739423268,4.566948035023e-11,2825.0025014211,1.9161361549586,3.9714934466084e-11,2441.9644638156,4330.6132484607,-1.0882499762443e-11,3734.0917729794,5730.8298023697,-9.8973787130271,1.1153762809191e-11,4333.7205734693,5.305335337713e-11,3749.8498867187
1.5479999999999,3395.3695129203,-8.9371218758849e-12,2918.3872128922,4482.0564986567,-4.1065837081078e-05,1.1530850059505e-11,3399.0317501543,4.4459029339972e-11,2921.5430201511,3291.2570922866,4.5647033895813e-11,2823.6676672937,1.9196370055042,3.953192200673e-11,2433.1019763589,4336.4805611216,-1.1414244549535e-11,3727.2907616461,5730.8279032563,-9.9075393717275,2.465187776135e-12,4339.5974269582,4.4556516462513e-11,3743.0443208726
1.5489999999999,3399.9418803379,-9.5567893876325e-12,2913.0436009534,4482.0552556026,-4.4755346721104e-05,2.031506993877e-11,3403.6157694089,5.3601594517116e-11,2916.1994116499,3300.1360024241,4.5597047838852e-11,2822.3049653756,1.923137847752,3.9432103415837e-11,2424.2437287368,4342.3371930735,-1.2205698257661e-11,3720.4805311421,5730.8259883273,-9.9176645158474,1.3692768273399e-11,4345.4636042368,5.6233375594905e-11,3736.2295075132
1.5499999999999,3404.5058380067,-9.2688079433856e-12,2907.6928253683,4482.0540125611,-4.8460944071849e-05,7.427055498388e-12,3408.1913879683,4.061907060704e-11,2910.8486107138,3309.0105852124,4.561481834614e-11,2820.9144091324,1.9266386817002,3.9382659459963e-11,2415.3898084765,4348.1831298305,-1.183796463633e-11,3713.6610982413,5730.8240576361,-9.9277541203538,-2.7702328278534e-12,4351.319090752,3.9652394215328e-11,3729.405463387
1.5509999999999,3409.0613747034,-9.0685098319554e-12,2902.3348993723,4482.0527695329,-5.2182591275596e-05,9.4626867105929e-12,3412.7585945483,4.2656999460489e-11,2905.4906305502,3317.8807531672,4.5668490690487e-11,2819.4960123046,1.9301395073441,3.9170396960719e-11,2406.5403030621,4354.0183569331,-1.158217619035e-11,3706.83247974,5730.8221112397,-9.9378081602632,-1.7134644397787e-13,4357.1638719799,4.2255330311158e-11,3722.572205266
1.5519999999999,3413.6084792253,-8.6640312979558e-12,2896.9698362182,4482.0515265181,-5.5920411796251e-05,7.45188979967e-12,3417.3173778846,4.0400887496572e-11,2900.1254843838,3326.746418848,4.5830414983905e-11,2818.0497889074,1.9336403246803,3.934291260832e-11,2397.6952999341,4359.8428599482,-1.1065651867037e-11,3699.9946924576,5730.8201491941,-9.9478266108857,-2.7407355898679e-12,4362.9979334218,3.9373938137688e-11,3715.7297499444
1.5529999999999,3418.1471403909,-8.7420903849278e-12,2891.5976491763,4482.050283517,-5.9674299222934e-05,1.6955417105058e-11,3421.8677267339,4.9892626488579e-11,2894.7531854568,3335.6074948584,4.6095255216982e-11,2816.5757532306,1.9371411337039,3.9215242164659e-11,2388.8548864887,4365.656624469,-1.1165360302989e-11,3693.1477532358,5730.8181715555,-9.9578094473243,9.4002219203082e-12,4368.8212606057,5.1496920443206e-11,3708.8781142389
1.5539999999999,3422.6773470392,-8.3079272628073e-12,2886.2183515345,4482.0490405278,-6.3444274019275e-05,1.8332660042808e-11,3426.4096298724,5.1138304528464e-11,2889.373747028,3344.4638938479,4.6262236229333e-11,2815.0739198386,1.9406419344154,3.8985685339721e-11,2380.0191500766,4371.4596361152,-1.0610918393938e-11,3686.2916789393,5730.8161783778,-9.9677566449304,1.115221543585e-11,4374.6338390841,5.308804264248e-11,3702.0173149879
1.5549999999999,3427.1990880305,-8.8502503936549e-12,2880.8319565983,4482.0477975529,-6.7230432932774e-05,1.7624496480295e-11,3430.9430761,5.0702776178968e-11,2883.9871823764,3353.3155285119,4.6007776581536e-11,2813.5443035701,1.9441427268095,3.8955042316879e-11,2371.1881780023,4377.2518805331,-1.1303596947343e-11,3679.426486455,5730.8141697199,-9.9776681792461,1.0251928646288e-11,4380.4356544396,5.2531925857913e-11,3695.1473690557
1.5559999999999,3431.7123522458,-8.863028366779e-12,2875.4384776904,4482.0465545906,-7.1032689220374e-05,1.5594049489198e-11,3435.4680542345,4.8567403571065e-11,2878.5935047958,3362.1623115928,4.5982836462122e-11,2811.986919538,1.9476435108824,3.8991710034353e-11,2362.3620575232,4383.0333433953,-1.1319948450828e-11,3672.5521926928,5730.8121456357,-9.9875440256608,7.6618208305623e-12,4386.2266922777,4.980473238686e-11,3688.2682933258
1.5569999999999,3436.2171285871,-9.0310987854725e-12,2870.0379281512,4482.0453116418,-7.4851210456472e-05,1.6941990345354e-11,3439.9845531165,5.0004553449334e-11,2873.1927275995,3371.0041558811,4.5912995627617e-11,2810.4017831293,1.9511442866357,3.8831660109651e-11,2353.5408758489,4388.8040104012,-1.1534662114343e-11,3665.6688145847,5730.8101061826,-9.9973841599824,9.3853440644165e-12,4392.0069382327,5.1640431514288e-11,3681.3801047068
1.5579999999999,3440.7134059773,-8.4294411728525e-12,2864.6303213381,4482.0440687059,-7.8685762446185e-05,1.9008938520471e-11,3444.4925616067,5.177342235485e-11,2867.784864117,3379.840974216,4.6302103644258e-11,2808.7889100047,1.9546450540613,3.8872779127563e-11,2344.7247201401,4394.5638672766,-1.076624206453e-11,3658.7763690854,5730.8080514158,-10.007188557589,1.2026463158676e-11,4397.7763779641,5.3899817768766e-11,3674.4828201281
1.5589999999999,3445.2011733607,-8.5215862144494e-12,2859.2156706263,4482.0428257829,-8.2536568129399e-05,1.6968640902115e-11,3448.9920685867,4.9792336052901e-11,2862.3699276961,3388.6726794865,4.6301935376081e-11,2807.1483160989,1.9581458131582,3.8853810793715e-11,2335.9136775078,4400.312899774,-1.0884005502421e-11,3651.8748731721,5730.8059813916,-10.016957194533,9.4178857421023e-12,4403.5349971583,5.1369654190114e-11,3667.576456543
1.5599999999999,3449.6804197021,-9.0299642763192e-12,2853.793989408,4482.0415828736,-8.6403560089821e-05,1.2195191904929e-11,3453.48306296,4.5250771012195e-11,2856.9479317021,3397.499184632,4.6405346579292e-11,2805.48001762,1.9616465639222,3.875850248386e-11,2327.1078350126,4406.0510936726,-1.1533357602289e-11,3644.9643438441,5730.8038961671,-10.026690046587,3.3194896484345e-12,4409.2827815291,4.5569130066592e-11,3660.6610309272
1.5609999999999,3454.1511339878,-8.4451334814162e-12,2848.3652910929,4482.040339977,-9.0286733097855e-05,8.1435630808202e-12,3457.9655336499,4.0899073190659e-11,2851.5188895168,3406.3204026433,4.6501524852971e-11,2803.7840310496,1.9651473063513,3.8746113956156e-11,2318.3072796636,4411.7784347782,-1.0786420368003e-11,3638.0447981232,5730.8017957974,-10.036387089686,-1.8506663215789e-12,4415.0197168156,4.0011077784285e-11,3653.7365602778
1.5619999999999,3458.613305225,-8.8280285859277e-12,2842.9295891077,4482.0390970932,-9.4186157980403e-05,1.0172513872919e-11,3462.4394696012,4.3091971831111e-11,2846.0828145402,3415.1362465634,4.6592426097836e-11,2802.0603731426,1.9686480404413,3.864931812092e-11,2309.5120984178,4417.4949089234,-1.1275529121502e-11,3631.1162530537,5730.7996803389,-10.046048299954,7.3471003586567e-13,4420.7457887842,4.2812049912133e-11,3646.8030616153
1.5629999999999,3463.0669224422,-8.405644236209e-12,2837.4868968966,4482.0378542219,-9.8101729236078e-05,1.900516029274e-11,3466.9048597797,5.1868423618651e-11,2840.6397201889,3423.9466294884,4.6782062598782e-11,2800.3090609269,1.97214876619,3.8506685687278e-11,2300.722378179,4423.2005019677,-1.0736102978859e-11,3624.1787257018,5730.7975498474,-10.055673653375,1.2017498975114e-11,4426.4609832277,5.4021913678537e-11,3639.8605519818
1.5639999999999,3467.5119746889,-8.9844590100974e-12,2832.0372279207,4482.0366113646,-0.000102033533949,1.3544635031615e-11,3471.3616931735,4.6651780528928e-11,2835.1896198986,3432.7514645685,4.6698201729145e-11,2798.5301117033,1.9756494835956,3.8490108669742e-11,2291.9382057971,4428.8951997971,-1.1475428246532e-11,3617.2322331562,5730.7954043814,-10.065263126275,5.0476532675869e-12,4432.1652859676,4.7359063719277e-11,3632.9090484439
1.5649999999999,3471.9484510357,-8.8907249617964e-12,2826.5805956586,4482.0353685192,-0.00010598165522424,1.8990081208925e-11,3475.8099587893,5.1940219486513e-11,2829.7325271196,3441.5506650084,4.6676018952696e-11,2796.7235430456,1.979150192654,3.8262800913791e-11,2283.1596680671,4434.5789883246,-1.1355742735031e-11,3610.2767925277,5730.7932439945,-10.074816695054,1.2001263698103e-11,4437.8586828483,5.4113913870724e-11,3625.9485680872
1.5659999999999,3476.3763405747,-8.9790397339584e-12,2821.1170136058,4482.0341256875,-0.00010994595561442,8.1093170373192e-12,3480.2496456579,4.122848850513e-11,2824.2684553219,3450.3441440688,4.6798156495831e-11,2794.8893727998,1.9826508933615,3.8262034166014e-11,2274.3868517285,4440.2518534902,-1.1468600374931e-11,3603.3124209491,5730.7910687455,-10.084334335926,-1.8934341941557e-12,4443.5411597452,4.0432313747063e-11,3618.9791280227
1.5669999999999,3480.7956324191,-9.2170819587789e-12,2815.6464952748,4482.0328828677,-0.00011392649093978,7.4292629340111e-12,3484.6807428281,4.0603367890135e-11,2818.7974179906,3459.1318150666,4.6661887895261e-11,2793.0276190847,1.9861515857164,3.8196916116173e-11,2265.6198434643,4445.9137812605,-1.17726627058e-11,3596.3391355754,5730.7888786884,-10.093816025434,-2.7662767909664e-12,4449.2127025567,3.9633968849928e-11,3612.0007453806
1.5679999999999,3485.2063157032,-9.4101185177387e-12,2810.1690541954,4482.0316400619,-0.00011792337738825,1.8279550616229e-11,3489.1032393735,5.1562460898213e-11,2813.3194286305,3467.9135913765,4.6671985720614e-11,2791.138300291,1.9896522697123,3.8064747534539e-11,2256.8587298998,4451.5647576294,-1.2019264056251e-11,3589.3569535837,5730.7866738827,-10.103261740296,1.1097137098126e-11,4454.8732972121,5.3631887993177e-11,3605.0134373171
1.5689999999999,3489.6083795828,-8.9425654381525e-12,2804.6847039142,4482.0303972682,-0.00012193650445624,1.1501135981085e-11,3493.5171243854,4.4623255611442e-11,2807.8345007607,3476.6893864309,4.6961205757423e-11,2789.2214350817,1.9931529453488,3.8160177275037e-11,2248.1035976024,4457.2047686175,-1.1422095907987e-11,3582.3658921731,5730.7844543822,-10.11267145702,2.4410959365007e-12,4460.5229296635,4.4768701766562e-11,3598.0172210065
1.5699999999999,3494.001813235,-9.2259533346351e-12,2799.1934579949,4482.0291544878,-0.00012596592239333,1.4215209738488e-11,3497.922386979,4.7358617027982e-11,2802.3426479197,3485.4591137217,4.7086081561565e-11,2787.2770423914,1.9966536126237,3.7973907872357e-11,2239.3545330802,4462.8338002726,-1.1784118819635e-11,3575.3659685646,5730.7822202452,-10.122045152415,5.9056683154868e-12,4466.1615858934,4.8262665565402e-11,3591.0121136481
1.5709999999999,3498.3866058582,-9.0778183581275e-12,2793.6953300182,4482.0279117198,-0.00013001165723381,1.6253371044883e-11,3502.3190162891,4.9359310042019e-11,2796.8438836616,3494.2226868006,4.697519803698e-11,2785.3051414267,2.000154271531,3.7976644398641e-11,2230.6116227817,4468.4518386693,-1.1594974980156e-11,3568.3572000011,5730.7799715271,-10.131382803342,8.5109384817539e-12,4471.7892519087,5.0818263659658e-11,3583.9981324617
1.5719999999999,3502.762746672,-9.1668027335512e-12,2788.1903335815,4482.0266689647,-0.00013407372216534,7.4319075199503e-12,3506.7070014728,4.0536130008206e-11,2791.3382215585,3502.9800192801,4.7107186207374e-11,2783.3057516654,2.0036549220715,3.7814720972584e-11,2221.8749530942,4474.0588699096,-1.1708661817877e-11,3561.3396037474,5730.7777082853,-10.14068438674,-2.7618679912522e-12,4477.4059137449,3.9548566678482e-11,3576.97529469
1.5729999999999,3507.1302249178,-8.6482210281957e-12,2782.6784822995,4482.0254262218,-0.0001381520016821,1.288271832961e-11,3511.0863317077,4.576593357758e-11,2785.8256751985,3511.7310248342,4.7349743917402e-11,2781.2788928567,2.0071555642395,3.7802833779965e-11,2213.1446103435,4479.6548801223,-1.1046337455856e-11,3554.3131970903,5730.7754305755,-10.149949879468,4.2017491916346e-12,4483.0115574637,4.6228716167607e-11,3569.9436175966
1.5739999999999,3511.4890298581,-8.6037704738473e-12,2777.1597898032,4482.0241834923,-0.00014224667597773,8.127058054308e-12,3515.4569961941,4.1006436093949e-11,2780.3062581882,3520.4756171997,4.7354408588829e-11,2779.224585021,2.0106561980306,3.7842855585279e-11,2204.420680793,4485.2398554636,-1.0989591181509e-11,3547.2779973381,5730.773138456,-10.159179258857,-1.8674246177186e-12,4488.6061691552,4.0149497441966e-11,3562.9031184689
1.5749999999999,3515.8391507768,-9.1796813206368e-12,2771.634269741,4482.0229407752,-0.0001463577116283,1.3532982894027e-11,3519.8189841522,4.6748611925995e-11,2774.7799841497,3529.2137101765,4.7352889838426e-11,2777.1428484494,2.0141568234424,3.7530444897682e-11,2195.7032506427,4490.8137821168,-1.1725266590989e-11,3540.2340218211,5730.7708319823,-10.168372502051,5.030141234097e-12,4494.1897349346,4.7484151159682e-11,3555.8538146143
1.5759999999999,3520.1805769796,-9.2185460653926e-12,2766.1019357776,4482.021698071,-0.00015048515001581,1.5585590110168e-11,3524.1722848246,4.8673089864115e-11,2769.2468667228,3537.9452176287,4.7456404257684e-11,2775.0337037037,2.017657440476,3.7426946090935e-11,2186.9924060283,4496.3766462923,-1.1774969888023e-11,3533.1812878913,5730.7685112118,-10.177529586378,7.6497835843625e-12,4499.7622409461,4.9942446879447e-11,3548.7957233633
1.5769999999999,3524.5132977935,-9.6555888284833e-12,2760.5628015946,4482.0204553792,-0.00015462883857253,8.7618983249382e-12,3528.5168874747,4.2097855583456e-11,2763.7069195637,3546.6700534857,4.7375015369e-11,2772.8971716165,2.0211580491219,3.7161961008447e-11,2178.2882330207,4501.9284342279,-1.2333242066509e-11,3526.1198129222,5730.7661762007,-10.186650489009,-1.0622813392813e-12,4505.3236733598,4.1543888121276e-11,3541.7288620671
1.5779999999999,3528.8373025669,-9.6049349029848e-12,2755.0168808906,4482.0192127001,-0.00015878896681443,1.0796836515115e-11,3532.8527813878,4.4182477988708e-11,2758.1601563458,3555.3881317424,4.7333677775929e-11,2770.7332732904,2.0246586493838,3.7196599966816e-11,2169.5908176246,4507.4691321886,-1.2268620147582e-11,3519.049614309,5730.7638270063,-10.195735187642,1.5363934083301e-12,4510.8740183737,4.4206741565966e-11,3534.6532480997
1.5789999999999,3533.1525806701,-9.1211517505574e-12,2749.4641873804,4482.0179700332,-0.00016296542014516,1.2862106345268e-11,3537.1799558704,4.597600338635e-11,2752.606590759,3564.0993664609,4.7665995282775e-11,2768.5420300981,2.0281592412521,3.7259949466073e-11,2160.9002457781,4512.9987264669,-1.1650676950969e-11,3511.9707094685,5730.7614636849,-10.204783659672,4.1737143255394e-12,4516.4132622127,4.6497784789157e-11,3527.568898856
1.5799999999999,3537.4591214946,-9.3629756725555e-12,2743.9047347959,4482.0167273796,-0.00016715836034109,1.5585282196751e-11,3541.4984002513,4.8661159303409e-11,2747.0462365109,3572.8036717705,4.7997147922807e-11,2766.3234636822,2.0316598247282,3.6996791047406e-11,2152.2166033517,4518.5172033823,-1.1959606915912e-11,3504.8831158391,5730.7590862947,-10.213795882944,7.6485293792894e-12,4521.9413911299,4.9927755506329e-11,3520.4758317538
1.5809999999999,3541.7569144538,-9.1435053972688e-12,2738.3385368853,4482.0154847377,-0.00017136757981007,1.2178061510604e-11,3545.8081038792,4.5349361418867e-11,2741.479107324,3581.5009618692,4.7682133415272e-11,2764.0775959551,2.0351603998064,3.712620488816e-11,2143.5399761475,4524.0245492821,-1.1679327643899e-11,3497.7868508806,5730.7566948908,-10.222771834912,3.2991500156787e-12,4527.4583914039,4.5697588942073e-11,3513.3740642305
1.5819999999999,3546.0459489826,-9.7468422222136e-12,2732.7656074136,4482.0142421088,-0.00017559324192007,1.5553562777992e-11,3550.1090561264,4.8964547694208e-11,2735.9052169395,3590.1911510241,4.7558697431616e-11,2761.8044490985,2.0386609664825,3.670426376029e-11,2134.8704498982,4529.5207505407,-1.245004793704e-11,3490.6819320744,5730.7542895319,-10.2317114936,7.6075604149572e-12,4532.9642493429,5.0315559010916e-11,3506.2636137474
1.5829999999999,3550.3262145376,-1.0212462819847e-11,2727.1859601621,4482.0129994925,-0.0001798353786171,1.21424667196e-11,3554.4012463853,4.571169571338e-11,2730.3245791141,3598.8741535726,4.7482412966759e-11,2759.5040455633,2.0421615247589,3.6522423974006e-11,2126.2081102666,4535.00579356,-1.304485339193e-11,3483.568376923,5730.7518702743,-10.24061483695,3.2500495350529e-12,4538.4589512807,4.6160657761474e-11,3499.1444977859
1.5839999999999,3554.5977005971,-9.8806310355748e-12,2721.5996089288,4482.0117568882,-0.00018409390838769,2.1646306275214e-11,3558.6846640703,5.5174901973654e-11,2724.7372076213,3607.5498839229,4.748211372696e-11,2757.1764080695,2.0456620746272,3.6607389862497e-11,2117.5530428441,4540.4796647697,-1.2621008405045e-11,3476.4462029505,5730.7494371745,-10.24948184285,1.5396302288639e-11,4543.9424835791,5.8248681052142e-11,3492.0167338488
1.5849999999999,3558.860396661,-9.654312072005e-12,2716.0065675282,4482.0105142967,-0.00018836893741536,1.5545125083005e-11,3562.959298618,4.8974428679127e-11,2719.1431162516,3616.2182565554,4.7587199805688e-11,2754.8215596058,2.0491626160861,3.6423712136691e-11,2108.9053331507,4545.9423506265,-1.2332003473947e-11,3469.3154277024,5730.7469902906,-10.258312489518,7.6031776360952e-12,4549.414832628,5.0328584182135e-11,3484.8803394615
1.5859999999999,3563.114292251,-9.7388937192466e-12,2710.4068497911,4482.0092717178,-0.00019266025981324,1.0791320094461e-11,3567.2251394863,4.4192772705176e-11,2713.5423188117,3624.8791860226,4.7570241148986e-11,2752.4395234295,2.0526631491329,3.6487889966408e-11,2100.2650666335,4551.3938376151,-1.2440083685394e-11,3462.1760687453,5730.7445296795,-10.267106754861,1.5327860508618e-12,4554.8759848442,4.422078675459e-11,3477.7353321699
1.5869999999999,3567.3593769106,-9.8399205450406e-12,2704.8004695649,4482.0080291502,-0.00019696817093973,1.5546498116636e-11,3571.4821761536,4.8976822597524e-11,2707.9348291244,3633.532586951,4.7657122172196e-11,2750.0303230661,2.0561636737656,3.6441981376978e-11,2091.6323286662,4556.8341122476,-1.2569181806477e-11,3455.0281436672,5730.7420553968,-10.275864617518,7.6059948270202e-12,4560.3259266708,5.0331915718571e-11,3470.5817295408
1.5879999999999,3571.5956402052,-9.6921325132282e-12,2699.1874407132,4482.0067865956,-0.0002012925267536,1.8937896389959e-11,3575.7303981225,5.2387832787104e-11,2702.3206610304,3642.1783740413,4.7747625298022e-11,2747.5939823094,2.0596641899766,3.6332292209507e-11,2083.007204548,4562.2631610638,-1.2380436953396e-11,3447.8716700771,5730.7395675017,-10.284586055657,1.1938001802381e-11,4565.7646445813,5.4689195012891e-11,3463.4195491641
1.5889999999999,3575.8230717217,-9.7557101286228e-12,2693.567777116,4482.0055440536,-0.00020563329007928,1.0113698073466e-11,3579.969794916,4.3517953997319e-11,2696.6998283859,3650.8164620692,4.7788501454649e-11,2745.1305252208,2.0631646977674,3.6243302629912e-11,2074.389779503,4567.680970631,-1.2461712217693e-11,3440.7066656052,5730.7370660511,-10.293271047672,6.6607743626212e-13,4571.1921250751,4.3359114909602e-11,3456.2488086498
1.5899999999999,3580.0416610691,-9.4589024113301e-12,2687.9414926697,4482.0043015233,-0.0002099905848354,1.5567319135157e-11,3584.2003560782,4.8771251794089e-11,2691.0723450631,3659.4467658867,4.8039969571811e-11,2742.6399761294,2.0666651971309,3.6152617358121e-11,2065.7801386793,4573.0875275443,-1.2082640443722e-11,3433.533147903,5730.7345511011,-10.30191957225,7.6312255126165e-12,4576.6083546784,5.006972354088e-11,3449.0695256286
1.5909999999999,3584.2513978783,-9.7542911248194e-12,2682.3086012868,4482.0030590064,-0.00021436438635192,1.8273852049611e-11,3588.4220711768,5.153736118424e-11,2685.4382249522,3668.0692004227,4.7946057714354e-11,2740.1223596319,2.0701656880679,3.6128266177327e-11,2057.178367148,4578.4828184266,-1.2459987902558e-11,3426.3511346428,5730.7320227112,-10.310531607985,1.1089450538404e-11,4582.0133199477,5.3603262453739e-11,3441.8817177544
1.5919999999999,3588.4522718017,-9.8029986905779e-12,2676.6691168962,4482.0018165008,-0.00021875468678445,1.8959503238214e-11,3592.6349297989,5.2160792178568e-11,2679.7974819575,3676.6836806835,4.7963746689639e-11,2737.5777005919,2.0736661705747,3.6108917939037e-11,2048.5845499027,4583.8668299284,-1.2522233250323e-11,3419.1606435181,5730.7294809361,-10.319107133572,1.1967499040366e-11,4587.4070074636,5.4399776350245e-11,3434.6854026995
1.5929999999999,3592.6442725142,-9.2530705320115e-12,2671.0230534429,4482.0005740072,-0.00022316154468172,1.150005091155e-11,3596.8389215553,4.4635871387921e-11,2674.1501300013,3685.2901217543,4.8200853898506e-11,2735.0060241397,2.0771666446451,3.6062460309627e-11,2039.9987718581,4589.2395487281,-1.1819822898218e-11,3411.9616922433,5730.726925834,-10.32764612789,2.4389327363261e-12,4592.7894038369,4.4787568619087e-11,3427.4805981592
1.5939999999999,3596.8273897121,-9.52959933187e-12,2665.3704248881,4481.9993315271,-0.00022758480167795,1.6261487816027e-11,3601.0340360796,4.9311653718687e-11,2668.4961830226,3693.8884387995,4.8185748793839e-11,2732.4073556727,2.080667110278,3.6153013742435e-11,2031.4211178498,4594.6009615319,-1.2173102803548e-11,3404.7542985538,5730.7243574643,-10.336148569632,8.520604360962e-12,4598.1604957074,5.07605632874e-11,3420.2673218505
1.5949999999999,3601.0016131141,-1.011791692096e-11,2659.7112452092,4481.9980890582,-0.00023202471015793,2.708868632878e-11,3605.2202630238,6.0472312921056e-11,2662.8356549746,3702.4785470638,4.8041822256484e-11,2729.7817208544,2.0841675674724,3.5990274996345e-11,2022.8516726332,4599.9510550737,-1.2924675218962e-11,3397.5384802057,5730.7217758815,-10.344614438095,2.235645783083e-11,4603.5202697384,6.5017464502548e-11,3413.045591509
1.5959999999999,3605.1669324605,-9.772876952141e-12,2654.0455283996,4481.9968466013,-0.0002364810849258,2.0320603706658e-11,3609.3975920649,5.3473532893311e-11,2657.1685598284,3711.060361873,4.8288015079556e-11,2727.1291456144,2.0876680162199,3.5950967029741e-11,2014.2905208822,4605.2898161156,-1.2483965250443e-11,3390.3142549763,5730.7191811441,-10.353043712119,1.3710645466181e-11,4608.8687126245,5.6077274768196e-11,3405.815424893
1.5969999999999,3609.323337514,-9.4826056729058e-12,2648.3732884688,4481.9956041574,-0.00024095405046864,8.1115895250727e-12,3613.5660129016,4.1162569013042e-11,2651.4949115713,3719.6337986347,4.8433541031956e-11,2724.4496561483,2.0911684565226,3.5925084955479e-11,2005.7377471894,4610.6172314473,-1.2113227088051e-11,3383.0816406633,5730.7165733109,-10.361436371024,-1.8880331326132e-12,4614.2058110883,4.0351117412685e-11,3398.5768397823
1.5979999999999,3613.470818059,-9.4368297898217e-12,2642.6945394424,4481.9943617247,-0.00024544353141209,1.1505876980344e-11,3617.7255152526,4.4624829872997e-11,2645.8147242055,3728.1987728394,4.8251657877585e-11,2721.7432789173,2.0946688883744,3.5765796574383e-11,1997.1934360642,4615.9332878867,-1.205480160138e-11,3375.8406550855,5730.7139524372,-10.369792393966,2.4432868922508e-12,4619.5315518773,4.4774006550952e-11,3391.3298539753
1.5989999999999,3617.6093639022,-9.5641133901481e-12,2637.009295362,4481.9931193048,-0.00024994961495395,1.8959308081823e-11,3621.8760888611,5.2168082353976e-11,2640.128011751,3736.755200061,4.8224719356726e-11,2719.0100406478,2.0981693117729,3.5560993386086e-11,1988.6576719326,4621.2379722795,-1.2217428457806e-11,3368.5913160821,5730.7113185827,-10.378111760401,1.1968486965386e-11,4624.8459217706,5.4410117904247e-11,3384.074485294
1.5999999999999,3621.7389648722,-8.9022851590403e-12,2631.3175702849,4481.9918768962,-0.00025447230063946,1.7630021574566e-11,3626.01772349,5.0606370656514e-11,2634.4347882421,3745.3029959578,4.8465473821702e-11,2716.2499683315,2.1016697267155,3.5495434716482e-11,1980.1305391362,4626.5312714994,-1.1372028319023e-11,3361.3336415132,5730.7086718028,-10.386394449759,1.026593827308e-11,4630.1489075719,5.2415270040962e-11,3376.8107515787
1.6009999999999,3625.8596108201,-9.4213178924996e-12,2625.6193782847,4481.9906344997,-0.00025901154367602,1.4898975282673e-11,3630.1504089262,4.7999006679011e-11,2628.7350677307,3753.8420762736,4.8338426143768e-11,2713.4630892249,2.105170133198,3.5453939263574e-11,1971.6121219314,4631.8131724485,-1.2035109020481e-11,3354.0676492595,5730.7060121565,-10.39464044151,6.7820029106547e-12,4635.4404961154,4.9084655610876e-11,3369.5386706924
1.6019999999999,3629.9712916186,-8.9254020840812e-12,2619.9147334507,4481.9893921159,-0.00026356731564192,1.7645543012867e-11,3634.2741349782,5.0476410377864e-11,2623.0288642843,3762.3723568379,4.8838408144014e-11,2710.6494308489,2.1086705312175,3.544426037394e-11,1963.1025044884,4637.0836620565,-1.1401657395993e-11,3346.7933572222,5730.703339702,-10.402849715232,1.0285642997043e-11,4640.720674263,5.2249532825344e-11,3362.2582605182
1.6029999999999,3634.0739971629,-9.1749351172066e-12,2614.2036498881,4481.9881497438,-0.00026813979127382,1.6949290061741e-11,3638.3888914757,4.9965515232231e-11,2617.3161919858,3770.8937535675,4.8579597809739e-11,2707.8090209889,2.1121709207712,3.5413674596974e-11,1954.6017708905,4642.3427272815,-1.1720513448665e-11,3339.510783323,5730.700654496,-10.411022250852,9.3976033552212e-12,4645.9894289032,5.1597028732919e-11,3354.9695389595
1.6039999999999,3638.1677173705,-9.2956163599833e-12,2608.4861417179,4481.9869073834,-0.00027272883141904,1.626433362989e-11,3642.494668271,4.9308264936376e-11,2611.5970649344,3779.4061824665,4.8536097016494e-11,2704.941887694,2.1156713018546,3.5398317090041e-11,1946.1100051335,4647.5903551097,-1.187469567121e-11,3332.2199455043,5730.697956596,-10.419158027989,8.5257304688335e-12,4651.2467469534,5.0757556144254e-11,3347.6725239403
1.6049999999999,3642.2524421808,-9.2203120138912e-12,2602.7622230768,4481.9856650349,-0.00027733445710965,2.1018796078631e-11,3646.5914552393,5.4004625424375e-11,2605.8714972453,3787.9095596279,4.8674252128844e-11,2702.0480592774,2.1191716744683,3.5312990379066e-11,1937.6272911243,4652.8265325555,-1.1778550357278e-11,3324.9208617287,5730.6952460603,-10.427257026558,1.460333503428e-11,4656.4926153596,5.6757118102602e-11,3340.3672334057
1.6059999999999,3646.3281615556,-8.6381284070125e-12,2597.0319081175,4481.9844226991,-0.00028195680260978,1.6277037009904e-11,3650.6792422776,4.9146554013946e-11,2600.1395030502,3796.403801234,4.9062114614029e-11,2699.1275643155,2.122672038606,3.530231749288e-11,1929.1537126808,4658.0512466615,-1.1034853586445e-11,3317.6135499794,5730.6925229474,-10.435319226708,8.5436354171908e-12,4661.7270210961,5.0551242011809e-11,3333.0536853218
1.6069999999999,3650.394865479,-8.9068925845925e-12,2591.2952110082,4481.9831803746,-0.00028659570807577,1.3566268768084e-11,3654.758019304,4.6403518180749e-11,2594.4010964951,3804.8888235573,4.9086209055749e-11,2696.180431648,2.1261723942656,3.5300930581461e-11,1920.6893535303,4663.2644844984,-1.1378231690173e-11,3310.2980282598,5730.6897873136,-10.443344608302,5.0803172432778e-12,4666.9499511636,4.7047222888341e-11,3325.7318976734
1.6079999999999,3654.4525439573,-8.6892992801069e-12,2585.5521459329,4481.9819380615,-0.00029125130618013,1.3564033576885e-11,3658.8277762599,4.6435771894338e-11,2588.6562917428,3813.3645429612,4.9164171865568e-11,2693.2066903773,2.1296727414428,3.5038557125167e-11,1912.2342973093,4668.4662331653,-1.1100315111534e-11,3302.9743145938,5730.6870392167,-10.451333151667,5.0770238707587e-12,4672.1613925924,4.7088550073071e-11,3318.401888467
1.6089999999999,3658.5011870193,-8.3217079061004e-12,2579.8027270911,4481.9806957612,-0.00029592352257168,1.291081044158e-11,3662.8885031099,4.5509200574667e-11,2582.9051029726,3821.8308759011,4.9443875209387e-11,2690.2063698687,2.1331730801367,3.5301126605214e-11,1903.7886275624,4673.6564797898,-1.0630767099951e-11,3295.6424270254,5730.6842787166,-10.459284836964,4.2462439814317e-12,4677.3613324424,4.5904996817669e-11,3311.0636757306
1.6099999999999,3662.5407847158,-8.6550801248197e-12,2574.0469686981,4481.9794534722,-0.00030061243137425,1.0857150248289e-11,3666.9401898388,4.3649409607605e-11,2577.1475443779,3830.2877389252,4.9152556157173e-11,2687.1794997495,2.1366734103408,3.5135517759133e-11,1895.3524277414,4678.8352115274,-1.1056676407772e-11,3288.302383619,5730.6815058693,-10.467199644623,1.6205535177671e-12,4682.5497577988,4.352925832285e-11,3303.7172775103
1.6109999999999,3666.5713271204,-8.55187448634e-12,2568.2848849847,4481.9782111951,-0.00030531799620803,1.1539501992841e-11,3670.9828264549,4.4264935467053e-11,2571.383630169,3838.7350486751,4.9478457789243e-11,2684.1261099093,2.1401737320547,3.504818570782e-11,1886.9257812048,4684.0024155623,-1.0924885995856e-11,3280.9542024589,5730.6787207333,-10.475077555034,2.4943033749558e-12,4687.7266557772,4.4315704751663e-11,3296.3627118739
1.6119999999999,3670.5928043287,-9.0466696633928e-12,2562.5164901971,4481.9769689295,-0.00031004019024294,1.5582699193495e-11,3675.0164029887,4.8630179744213e-11,2565.6133745713,3847.1727218866,4.9038362780196e-11,2681.0462304991,2.1436740452746,3.4728792758232e-11,1878.5087712164,4689.1580791071,-1.1557053924971e-11,3273.5979016498,5730.6759233664,-10.482918548683,7.6588553207801e-12,4692.8920135208,4.9892407913421e-11,3288.9999969089
1.6129999999999,3674.6052064589,-8.5892994106107e-12,2556.7417985974,4481.975726676,-0.0003147791092033,8.8176636131587e-12,3679.0409094933,4.159970024703e-11,2559.8367918264,3855.6006753909,4.9423481800204e-11,2677.9398919317,2.1471743499973,3.4851913022216e-11,1870.1014809453,4694.3021894026,-1.0972771302686e-11,3266.2334993165,5730.6731138271,-10.490722606309,-9.8429684541879e-13,4698.0458182016,4.0911093956986e-11,3281.629150724
1.6139999999999,3678.6085236516,-8.9797058677732e-12,2550.9608244627,4481.9744844337,-0.00031953475706814,1.4215062286993e-11,3683.0563360433,4.725707238723e-11,2554.0538961907,3864.018826115,4.9316632375063e-11,2674.8071248807,2.1506746462208,3.4685246862176e-11,1861.7039934643,4699.4347337184,-1.1471545935393e-11,3258.8610136037,5730.6702921726,-10.498489708622,5.9186423123636e-12,4703.1880570192,4.8138539161802e-11,3274.2501914466
1.6149999999999,3682.60274607,-9.0568941235603e-12,2545.1735820858,4481.9732422029,-0.0003243070964345,7.4447201875438e-12,3687.0626727365,4.0384780589098e-11,2548.2647019368,3872.4270910828,4.9684489161761e-11,2671.6479602806,2.1541749339371,3.4542000336424e-11,1853.3163917494,4704.5556993522,-1.1570251701176e-11,3251.4804626761,5730.6674584612,-10.50621983637,-2.7373910430062e-12,4708.3187172025,3.9359225947888e-11,3266.8631372255
1.6159999999999,3686.5878638995,-9.4888298607376e-12,2539.380085775,4481.9719999845,-0.00032909613707943,8.1032576482176e-12,3691.0599096937,4.1265495361043e-11,2542.4692233532,3880.8253874159,4.9194476617331e-11,2668.4624293266,2.1576752131479,3.4420723216133e-11,1844.9387586792,4709.6650736306,-1.2122088055566e-11,3244.0918647185,5730.6646127521,-10.513912970457,-1.8969296619598e-12,4713.4377860095,4.0484463004198e-11,3259.4680062296
1.6169999999999,3690.5638673482,-9.1553466197158e-12,2533.5803498536,4481.9707577776,-0.00033390196608707,7.4264917132583e-12,3695.0480370567,4.0527673231261e-11,2536.6674747428,3889.213632334,4.9462227716401e-11,2665.2505634739,2.161175483848,3.4350793910731e-11,1836.5711770336,4714.7628439085,-1.1696123236593e-11,3236.6952379356,5730.6617551024,-10.521569091971,-2.75961111601e-12,4718.5452507248,3.9541989474423e-11,3252.0648166469
1.6179999999999,3694.5307466468,-9.2749419255966e-12,2527.7743886606,4481.9695155819,-0.00033872442224947,1.624697164998e-11,3699.0270449903,4.9413250401142e-11,2530.8594704243,3897.5917431565,4.9501482773939e-11,2662.0123944376,2.1646757460361,3.4200618899416e-11,1828.2137294935,4719.8489975695,-1.1848938497039e-11,3229.2906005518,5730.6588855698,-10.529188181778,8.5079833803126e-12,4723.6410986624,5.0893654741924e-11,3244.6535866857
1.6189999999999,3698.4884920484,-9.7347026273287e-12,2521.9622165501,4481.9682733981,-0.00034356363141796,2.0990719579173e-11,3702.9969236827,5.4254947756682e-11,2525.0452247326,3905.9596373026,4.9253477164835e-11,2658.7479541926,2.1681759997088,3.4151164535201e-11,1819.8664986396,4724.9235220259,-1.2436322804898e-11,3221.8779708115,5730.6560042137,-10.536770221202,1.4570193142271e-11,4728.7253171659,5.7079212016642e-11,3237.2343345752
1.6199999999999,3702.4370938287,-9.6998520326963e-12,2516.1438478916,4481.9670312259,-0.00034841961246457,2.2345505654164e-11,3706.9576633434,5.564176636802e-11,2519.2247520171,3914.3172322923,4.919552872712e-11,2655.4572749727,2.1716762448599,3.3911503813377e-11,1811.5295669516,4729.9864047185,-1.2391879189444e-11,3214.4573669787,5730.6531110915,-10.544315191518,1.6300659606838e-11,4733.7978936059,5.8851075922239e-11,3229.8070785635
1.6209999999999,3706.3765422862,-9.5677597788946e-12,2510.3192970696,4481.9657890645,-0.00035329236925463,1.6247337676634e-11,3710.9092542047,4.9421021962315e-11,2513.3980666427,3922.6644457476,4.9533942919622e-11,2652.140389271,2.1751764814886,3.4142651379743e-11,1803.2030168078,4735.0376331169,-1.2223166923064e-11,3207.0288073375,5730.6502062607,-10.551823074078,8.51089164422e-12,4738.8588153819,5.0903970275074e-11,3222.3718369184
1.6219999999999,3710.3068277417,-9.7883819105693e-12,2504.488578484,4481.9645469151,-0.00035818186313463,1.2168209148622e-11,3714.8516865225,4.5364258356717e-11,2507.5651829904,3931.0011953928,4.9435844307055e-11,2648.7973298391,2.1786767095925,3.3870687504711e-11,1794.8869304837,4740.0771947193,-1.2505045610123e-11,3199.5923101912,5730.6472897812,-10.55929385027,3.3011293351648e-12,4743.9080699238,4.5721401491228e-11,3214.9286279289
1.6229999999999,3714.2279405389,-9.2559501729816e-12,2498.6517065498,4481.963304778,-0.00036308813707819,8.1099094453863e-12,3718.784950575,4.1155546852412e-11,2501.7261154559,3939.3273990555,4.9677813078464e-11,2645.4281296868,2.1821769291651,3.3700720165897e-11,1786.5813901516,4745.1050770527,-1.1824895229662e-11,3192.1478938631,5730.6443617115,-10.566727501679,-1.8846087884716e-12,4748.945644689,4.0344678119142e-11,3207.4774699032
1.6239999999999,3718.1398710441,-9.3926463828886e-12,2492.808695697,4481.9620626513,-0.00036801112889862,1.1506939498473e-11,3722.7090366609,4.4510558433464e-11,2495.8808784493,3947.6429746676,4.9740061895676e-11,2642.0328220821,2.1856771402063,3.3777211062846e-11,1778.2864778796,4750.121267673,-1.199959576148e-11,3184.695576696,5730.6414221077,-10.574124009841,2.456686763741e-12,4753.9715271619,4.4631002886486e-11,3200.0183811677
1.6249999999999,3722.0426096464,-9.6198535248782e-12,2486.9595603709,4481.960820536,-0.00037295096751677,8.0888585760053e-12,3726.6239351043,4.1312942650196e-11,2490.0294863974,3955.9478402658,4.9835663373798e-11,2638.6114405503,2.1891773427128,3.3616039639417e-11,1770.0022756311,4755.1257541647,-1.2289898265738e-11,3177.2353770522,5730.6384710295,-10.581483356635,-1.9065625814219e-12,4758.9857048582,4.0545974563932e-11,3192.5513800705
1.6259999999999,3725.9361467574,-9.922136029461e-12,2481.1043150316,4481.9595784326,-0.00037790762189616,1.4200339688852e-11,3730.5296362511,4.7437651029547e-11,2484.1719537416,3964.2419139926,4.9595301823691e-11,2635.1640188745,2.1926775366804,3.3570719988607e-11,1761.7288652634,4760.1185241413,-1.2676130978218e-11,3169.7673133135,5730.6355085357,-10.588805523827,5.8981647690914e-12,4763.988165322,4.8370799553277e-11,3185.076484979
1.6269999999999,3729.8204728117,-9.7576773050445e-12,2475.2429741545,4481.9583363407,-0.00038288099688089,1.0121712495925e-11,3734.4261304697,4.3392467570513e-11,2478.3082949383,3972.525114097,4.967280579915e-11,2631.6905910944,2.1961777221063,3.3474807994982e-11,1753.4663285274,4765.0995652451,-1.2466069843065e-11,3162.2914038814,5730.6325346844,-10.596090493187,6.9016233700259e-13,4768.9788961254,4.3202919540464e-11,3177.5937142795
1.6279999999999,3733.6955782665,-9.7945124233334e-12,2469.3755522296,4481.95709426,-0.00038787126891293,1.01239754427e-11,3738.3134081508,4.3440580993481e-11,2472.4385244589,3980.7973589355,4.9773679101917e-11,2628.1911915064,2.1996778989862,3.3394876274018e-11,1745.2147470667,4770.0688651473,-1.2513177993778e-11,3154.8076671764,5730.6295495337,-10.60333824693,6.8735642178019e-13,4773.9578848695,4.3264499621776e-11,3170.1030863782
1.6289999999999,3737.5614536019,-9.6781194169893e-12,2463.5020637622,4481.9558521906,-0.00039287830361445,1.353016483574e-11,3742.1914597084,4.6735571142265e-11,2466.5626567902,3989.0585669728,4.9630362319863e-11,2624.6658546634,2.2031780673175,3.3312533287422e-11,1736.9742024167,4775.026411548,-1.2364539947463e-11,3147.3161216388,5730.6265531421,-10.610548766963,5.0394662401421e-12,4778.9251191843,4.7474232878209e-11,3162.6046197008
1.6299999999999,3741.4180893206,-9.0079055325987e-12,2457.6225232724,4481.9546101319,-0.00039790220432678,1.016259298936e-11,3746.0602755788,4.3021790123443e-11,2460.6807064335,3997.3086567822,5.033843307467e-11,2621.1146153741,2.2066782271001,3.3421341215367e-11,1728.7447760036,4779.9721921764,-1.150831513419e-11,3139.816785728,5730.6235455675,-10.617722035588,7.407772312229e-13,4783.8805867285,4.2729680904685e-11,3155.0983326922
1.6309999999999,3745.2654759486,-9.1321290807134e-12,2451.7369452949,4481.9533680848,-0.00040294289226495,1.0162525335145e-11,3749.9198462222,4.3018978136689e-11,2454.7926879059,4005.5475470474,5.0389777420112e-11,2617.5375087029,2.2101783783247,3.3311555770743e-11,1720.5265491442,4784.9061947905,-1.1667104782287e-11,3132.3096779226,5730.6205268694,-10.624858034967,7.3929751209789e-13,4788.8242751909,4.2726201049392e-11,3147.5842438175
1.6319999999999,3749.1036040342,-9.7277776112126e-12,2445.8453443797,4481.9521260496,-0.00040800045098877,9.4618479717923e-12,3753.7701621211,4.2572511488315e-11,2448.8986157395,4013.7751565621,5.0350984666381e-11,2613.9345699694,2.2136785209932,3.3286772643804e-11,1712.3196030444,4789.8284071774,-1.2428134910092e-11,3124.7948167206,5730.617497107,-10.631956747565,-1.5642001582883e-13,4793.7561722891,4.2155911574027e-11,3140.0623715612
1.6329999999999,3752.9324641491,-8.9472110276212e-12,2439.9477350912,4481.9508840245,-0.00041307486833375,8.8122096425503e-12,3757.6112137791,4.161341410347e-11,2442.9985044797,4021.9914042317,5.0699547858579e-11,2610.3058347483,2.2171786551006,3.3268460035429e-11,1704.1240187989,4794.7388171534,-1.1430918711586e-11,3117.2722206393,5730.6144563365,-10.639018155809,-9.8774807777424e-13,4798.6762657669,4.0930676382944e-11,3132.5327344253
1.6339999999999,3756.7520468875,-8.8906174089409e-12,2434.0441320087,4481.9496420119,-0.00041816604596079,8.827987819926e-12,3761.4429917264,4.1530940145251e-11,2437.0923686894,4030.1962090737,5.0869688669741e-11,2606.6513388687,2.2206787806431,3.3168452359678e-11,1695.93987739,4799.6374125636,-1.1358650131577e-11,3109.7419082148,5730.6114046196,-10.646042242116,-9.7177474400745e-13,4803.5845434022,4.0825411627698e-11,3124.9953509341
1.6349999999999,3760.5623428668,-8.7504205270594e-12,2428.1345497263,4481.9484000101,-0.00042327419464527,1.4935490344481e-11,3765.2654865122,4.7655317192419e-11,2431.180222944,4038.3894902186,5.0929324993398e-11,2602.971118414,2.2241788976196,3.3067910389095e-11,1687.7672596873,4804.5241812825,-1.1179605852174e-11,3102.2038980026,5730.6083420128,-10.653028989384,6.8311693107725e-12,4808.4809929971,4.8650094369718e-11,3117.4502396285
1.6359999999999,3764.3633427272,-8.7802196069298e-12,2422.2190028527,4481.9471580192,-0.00042839919268545,1.1539966031371e-11,3769.0786887105,4.4253447260834e-11,2425.2620818347,4046.5711669108,5.0970246252835e-11,2599.2652097214,2.2276790060242,3.3025356754868e-11,1679.6062464465,4809.3991112135,-1.12177073186e-11,3094.6582085771,5730.6052685748,-10.659978380182,2.4934342784944e-12,4813.365602385,4.4303940724411e-11,3109.8974190695
1.6369999999999,3768.155037132,-9.4027910457761e-12,2416.2975060113,4481.9459160388,-0.00043354104167292,1.2178936678597e-11,3772.8825889178,4.524419554286e-11,2419.3379599673,4054.7411585091,5.0382167188223e-11,2595.5336493818,2.2311791058539,3.2815928793783e-11,1671.4569183085,4814.2621902893,-1.2013161299063e-11,3087.1048585318,5730.602184364,-10.666890397326,3.3135716392962e-12,4818.2383594277,4.5569863854622e-11,3102.3369078372
1.6379999999999,3771.9374167675,-9.6233090940423e-12,2410.37007384,4481.9446740705,-0.00043869975189637,1.8960883210739e-11,3776.677177755,5.2134211878108e-11,2413.4078719632,4062.8993844876,5.0362035722284e-11,2591.776474239,2.2346791971106,3.2396911542332e-11,1663.3193557992,4819.1134064719,-1.2294928963819e-11,3079.5438664791,5730.5990894411,-10.67376502374,1.1975768467176e-11,4823.0992520187,5.4372847370365e-11,3094.768724532
1.6389999999999,3775.7104723429,-8.7827939365681e-12,2404.4367209914,4481.9434321124,-0.00044387538031287,1.9674778299617e-11,3780.4624458633,5.2449422409395e-11,2407.471832457,4071.0457644369,5.0914142693537e-11,2587.9937213898,2.2381792797824,3.2654052205261e-11,1655.1936393281,4823.9527477522,-1.1221135132189e-11,3071.9752510503,5730.5959838625,-10.680602242494,1.2889258237114e-11,4827.9482680764,5.4775717815703e-11,3087.1928877711
1.6399999999999,3779.4741945906,-9.1595828144442e-12,2398.4974621327,4481.9421901667,-0.00044906789344168,1.4239466376853e-11,3784.2383839101,4.7103944876559e-11,2401.5298560999,4079.1802180643,5.0786765418143e-11,2584.1854281833,2.2416793538738,3.2588294909819e-11,1647.0798491878,4828.7802021507,-1.170253477456e-11,3064.3990308957,5730.5928676897,-10.687402036641,5.9448860764699e-12,4832.7853955532,4.7946291034662e-11,3079.6094161935
1.6409999999999,3783.2285742659,-8.9175090922655e-12,2392.5523119453,4481.9409482302,-0.00045427738785975,1.3577849782009e-11,3788.0049825814,4.627083351888e-11,2395.5819575549,4087.3026651949,5.1160886291313e-11,2580.3516322207,2.2451794193777,3.2714583646232e-11,1638.9780655531,4833.595757717,-1.1393337662202e-11,3056.8152246842,5730.5897409775,-10.694164389484,5.0978301441296e-12,4837.6106224246,4.6882000018234e-11,3072.0183284535
1.6419999999999,3786.9736021474,-9.7639431262397e-12,2386.6012851255,4481.9397063058,-0.00045950372322068,1.828619373978e-11,3791.7622325915,5.1381931695516e-11,2389.6281515028,4095.4130257725,5.0595591084834e-11,2576.4923713548,2.2486794762905,3.2327361274009e-11,1630.8883684802,4838.3994025302,-1.2474812849383e-11,3049.2238511037,5730.5866037884,-10.700889284127,1.1118401338495e-11,4842.4239367024,5.3412303226141e-11,3064.4196432283
1.6429999999999,3790.7092690366,-9.1315982553297e-12,2380.6443963836,4481.9384643927,-0.00046474692550191,7.4316698628341e-12,3795.5101246745,4.0427559737377e-11,2383.6684526371,4103.5112198599,5.068035921485e-11,2572.6076836898,2.2521795246122,3.2277151437721e-11,1622.8108379062,4843.1911246985,-1.1666959065515e-11,3041.6249288607,5730.5834561803,-10.70757670397,-2.746902531825e-12,4847.2253264235,3.9416580242813e-11,3056.8133792115
1.6439999999999,3794.4355657584,-9.4101948455716e-12,2374.6816604448,4481.9372224896,-0.00047000718137724,6.7506668657846e-12,3799.2486495872,3.9814638565228e-11,2377.7028756656,4111.5971676405,5.0898544060041e-11,2568.6976075807,2.255679564336,3.2185381096395e-11,1614.7455536478,4847.9709123598,-1.2022910444998e-11,3034.0184766805,5730.5802982104,-10.714226632713,-3.6218181231895e-12,4852.0147796532,3.8633579842184e-11,3049.1995551157
1.6449999999999,3798.1524831606,-9.4473318057453e-12,2368.7130920481,4481.9359805979,-0.00047528423766607,1.8291953889082e-11,3802.9777981119,5.1337979874166e-11,2371.7314353119,4119.6707894182,5.0851683107422e-11,2564.7621816333,2.2591795954617,3.1984063834922e-11,1606.692595401,4852.738753681,-1.2070434929345e-11,3026.404513307,5730.5771299395,-10.720839053589,1.1124526647088e-11,4856.7922844899,5.3356606459498e-11,3041.5781896732
1.6459999999999,3801.8600121144,-1.0009212209061e-11,2362.7387059472,4481.9347387167,-0.0004805783881352,1.6224827904809e-11,3806.6975610519,4.9554024945941e-11,2365.7541463131,4127.7320056188,5.0787534768004e-11,2560.8014447033,2.2626796179838,3.1838543086693e-11,1598.6520427399,4857.4946368588,-1.2788360648219e-11,3018.7830575025,5730.5739514253,-10.72741395062,8.4869585317837e-12,4861.5578290582,5.1077453031012e-11,3033.9493016346
1.6469999999999,3805.558143514,-9.399980793745e-12,2356.7585169101,4481.9334968473,-0.00048588939614547,1.1484041148591e-11,3810.4079292358,4.4665122295173e-11,2359.7710234215,4135.7807367905,5.1028470511583e-11,2556.8154358964,2.2661796319015,3.1896371828488e-11,1590.6239751162,4862.2385501192,-1.2010017980124e-11,3011.1541280481,5730.5707627286,-10.733951307245,2.4321872640898e-12,4866.3114015149,4.4831181301996e-11,3026.3129097695
1.6479999999999,3809.246868277,-8.7770207768401e-12,2350.7725397188,4481.9322549877,-0.00049121731638024,1.6948514640347e-11,3814.1088935123,4.9833609461203e-11,2353.7820814022,4143.8169036048,5.1402730162631e-11,2552.8041945674,2.2696796372079,3.2026024193721e-11,1582.6084718585,4866.9704817178,-1.1214119910452e-11,3003.5177437434,5730.5675639056,-10.740451107363,9.4114273666013e-12,4871.0529900425,5.143494918175e-11,3018.6690328648
1.6489999999999,3812.9261773442,-8.7414624150295e-12,2344.7807891696,4481.9310131403,-0.00049656229043649,1.2867690420137e-11,3817.8004447573,4.5815138141614e-11,2347.7873350372,4151.8404268574,5.1181356895691e-11,2548.7677603205,2.273179633902,3.1871002365014e-11,1574.6056121711,4871.6904199395,-1.116877423879e-11,2995.8739234063,5730.5643550186,-10.746913335087,4.1967566574708e-12,4875.7825828577,4.6300760100926e-11,3011.0176897287
1.6499999999999,3816.5960616796,-8.8164753275777e-12,2338.7832800732,4481.9297713015,-0.00050192425408113,1.7624692504048e-11,3821.4825738646,5.0541763482737e-11,2341.7867991193,4159.8512274686,5.1304558691678e-11,2544.7061730083,2.2766796219806,3.1691363942821e-11,1566.6154751335,4876.3983530991,-1.1264572608027e-11,2988.2226858732,5730.5611361221,-10.753337974344,1.027295522954e-11,4880.5001682005,5.2340024675468e-11,3003.3588991838
1.6509999999999,3820.2565122706,-9.3095184339198e-12,2332.7800272542,4481.9285294753,-0.00050730309277469,1.5572736676572e-11,3825.1552717579,4.8660219083285e-11,2335.7804884597,4167.8492264845,5.1033485597152e-11,2540.6194727315,2.280179601443,3.1586357661373e-11,1558.6381396997,4881.0942695406,-1.1894617235608e-11,2980.5640499987,5730.5579072801,-10.759725009107,7.6521827069298e-12,4885.2057343484,4.9936130751271e-11,2995.6926800763
1.6519999999999,3823.9075201279,-9.4143443041261e-12,2326.7710455514,4481.9272876591,-0.00051269896977146,9.458978739163e-12,3828.8185293783,4.2589812752902e-11,2329.7684178805,4175.8343450774,5.1287695444768e-11,2536.507699839,2.2836795722796,3.1593877687641e-11,1550.6736846972,4885.778157638,-1.2028600337999e-11,2972.8980346561,5730.5546685483,-10.766074423785,-1.6051049378518e-13,4889.8992696013,4.2180128313751e-11,2988.0190512668
1.6529999999999,3827.5490762856,-8.997774747499e-12,2320.7563498176,4481.9260458541,-0.00051811180179584,1.422518179639e-11,3832.4723376939,4.7205476506884e-11,2323.7506022199,4183.8065045469,5.1608895108857e-11,2532.3708949267,2.2871795344914,3.1495355802547e-11,1542.7221888264,4890.4500057946,-1.1496394114463e-11,2965.2246587366,5730.5514199877,-10.772386202568,5.9286672793313e-12,4894.5807622932,4.8077679858094e-11,2980.3380316364
1.6539999999999,3831.1811718009,-9.0276397468614e-12,2314.7359549197,4481.9248040586,-0.00052354167530666,2.3051308258026e-11,3836.1166876933,5.6022174746428e-11,2317.7270563287,4191.7656263206,5.1513807108883e-11,2528.2090988379,2.2906794880805,3.1445646433981e-11,1534.7837306598,4895.1098024436,-1.153458578651e-11,2957.5439411498,5730.5481616551,-10.778660329956,1.7207332780877e-11,4899.2502007841,5.9342958498576e-11,2972.649640083
1.6549999999999,3834.8037977546,-9.1698384996342e-12,2308.7098757386,4481.9235622753,-0.0005289884894637,1.2187772492622e-11,3839.7515703921,4.5160222783558e-11,2311.6977950742,4199.7116319547,5.1516639044957e-11,2524.0223526624,2.2941794330325,3.1469498014414e-11,1526.8583886411,4899.7575360478,-1.1716329295641e-11,2949.8559008234,5730.5448936131,-10.784896790305,3.3275673883004e-12,4903.9075734687,4.5464682366103e-11,2964.9538955254
1.6559999999999,3838.416945251,-8.9011645276749e-12,2302.6781271691,4481.9223205017,-0.00053445237250571,2.0344241916104e-11,3843.3769768252,5.3216287279612e-11,2305.6628333351,4207.644443135,5.1547484163084e-11,2519.810697736,2.2976793693511,3.1355414792378e-11,1518.9462410843,4904.3931950997,-1.1373069153109e-11,2942.1605567033,5730.5416159177,-10.791095568351,1.3750003739765e-11,4908.5528687657,5.5758165445896e-11,2957.2508168977
1.6569999999999,3842.0206054177,-8.7657173186706e-12,2296.64072412,4481.9210787394,-0.0005399332712841,1.6275598056781e-11,3846.992898054,4.9128151199951e-11,2299.6221860061,4215.5639816775,5.1731912156794e-11,2515.5741756407,2.3011792970329,3.1235914028926e-11,1511.0473661736,4909.0167681216,-1.1200033955827e-11,2934.4579277534,5730.5383286302,-10.797256648698,8.5468498597918e-12,4913.1860751279,5.05348185173e-11,2949.5404231545
1.6579999999999,3845.6147694056,-9.0464684354696e-12,2290.5976815139,4481.9198369867,-0.00054543116442574,1.0831576087444e-11,3850.5993251609,4.3838404260865e-11,2293.5758679946,4223.4701695293,5.1464362285647e-11,2511.3128282036,2.3046792160704,3.1108945280911e-11,1503.1618419617,4913.6282436657,-1.1558816404023e-11,2926.7480329557,5730.5350318079,-10.803380016076,1.5918004761528e-12,4917.8071810345,4.3776106871396e-11,2941.8227332666
1.6589999999999,3849.1994283893,-8.8566827483039e-12,2284.5490142873,4481.918595245,-0.00055094614964446,1.4914585191872e-11,3854.1962492538,4.7729805351115e-11,2287.5238942231,4231.3629287693,5.1584040858255e-11,2507.026697497,2.3081791264663,3.1136821419808e-11,1495.2897463698,4918.2276103138,-1.131640614549e-11,2919.0308913102,5730.5317255114,-10.809465655469,6.8164944175275e-12,4922.4161749974,4.8748388138675e-11,2934.097766225
1.6599999999999,3852.7745735669,-9.1259638734797e-12,2278.4947373904,4481.9173535144,-0.00055647806010484,9.4661518207362e-12,3857.7836614638,4.25302137258e-11,2281.4662796277,4239.2421816088,5.1533791990688e-11,2502.7158258376,2.3116790282123,3.0950568497001e-11,1487.4311571864,4922.8148566777,-1.1660464260821e-11,2911.3065218347,5730.5284098006,-10.815513551611,-1.5214652454576e-13,4927.0130455575,4.2104807487786e-11,2926.3655410378
1.6609999999999,3856.3401961598,-8.9374896372618e-12,2272.4348657875,4481.9161117935,-0.00056202707094144,1.3526445588607e-11,3861.3615529432,4.6662838523726e-11,2275.4030391576,4247.1078503928,5.1519438021286e-11,2498.3802557864,2.3151789213076,3.0647763840652e-11,1479.5861520665,4927.3899713989,-1.14197470924e-11,2903.5749435652,5730.5250847327,-10.821523689765,5.0393517483927e-12,4931.5977812831,4.7385346514661e-11,2918.6260767303
1.6619999999999,3859.8962874132,-9.1911131483435e-12,2266.3694144562,4481.9148700838,-0.00056759314156807,2.0988188617621e-11,3864.929914871,5.4243384957353e-11,2269.3341877773,4254.9598576002,5.1432303728449e-11,2494.020030148,2.3186788057483,3.0606707272784e-11,1471.7548085312,4931.9529431491,-1.174384200997e-11,2895.8361755552,5730.5217503691,-10.827496055016,1.4570173192952e-11,4936.1703707764,5.7071482956195e-11,2910.8793923478
1.6629999999999,3863.4428385957,-9.5006225109273e-12,2260.2983983881,4481.9136283838,-0.0005731762743153,6.0483831484937e-12,3868.4887384468,3.9325129957968e-11,2263.2597404636,4262.7981258447,5.1472695897226e-11,2489.6351919705,2.322178681533,3.0553596111482e-11,1463.9372039667,4936.5037606295,-1.2139358962493e-11,2888.0902368762,5730.5184067671,-10.83343063259,-4.5159822062435e-12,4940.7308026654,3.8009824454566e-11,2903.1255069512
1.6639999999999,3866.9798409994,-1.008678557346e-11,2254.2218325884,4481.9123866945,-0.00057877638562331,1.4842387735525e-11,3872.0380148963,4.8393084678411e-11,2257.1797122084,4270.6225778759,5.1306218822045e-11,2485.2257845447,2.3256785486548,3.0408722415109e-11,1456.1334156235,4941.0424125717,-1.2888322353799e-11,2880.3371466175,5730.5150539877,-10.839327407705,6.7212060569921e-12,4945.2790656116,4.9596556896125e-11,2895.3644396213
1.6649999999999,3870.5072859402,-9.2535250295622e-12,2248.1397320759,4481.911145016,-0.00058439362334184,1.6914747380525e-11,3875.5777354672,5.014823105387e-11,2251.0941180168,4278.4331365795,5.1413139370848e-11,2480.7918514039,2.3291784071131,3.0240817662508e-11,1448.3435206156,4945.5688877369,-1.1823708678804e-11,2872.576923886,5730.5116920901,-10.845186365964,9.3671303352805e-12,4949.8151483045,5.1839344449023e-11,2887.5962094561
1.6659999999999,3874.0251647575,-9.5142053957442e-12,2242.0521118828,4481.9099033476,-0.00059002791277862,2.0974643896721e-11,3879.1078914311,5.4311621172642e-11,2245.0029729075,4286.2297249787,5.1416540296223e-11,2476.3334363235,2.3326782569056,3.0098671818801e-11,1440.5675959201,4950.0831749166,-1.2156824158449e-11,2864.8095878062,5730.5083211331,-10.851007492777,1.4556206066885e-11,4954.3390394635,5.7159318944677e-11,2879.8208355709
1.6669999999999,3877.5334688145,-9.515090104717e-12,2235.9589870553,4481.9086616896,-0.00059567931924676,2.2337625672775e-11,3882.6284740832,5.5612712351882e-11,2238.9062919131,4294.0122662343,5.1399289338616e-11,2471.8505833206,2.3361780980259,3.0067840578463e-11,1432.8057183758,4954.5852629321,-1.2157989892625e-11,2857.0351575204,5730.5049411764,-10.856790773829,1.6299875511827e-11,4958.8507278387,5.8821969864398e-11,2872.0383370992
1.6679999999999,3881.0321894977,-9.6460825438349e-12,2229.8603726527,4481.9074200416,-0.00060134781102761,1.0777408479545e-11,3886.1394747422,4.4239463654894e-11,2232.8040900796,4301.7806836461,5.1353568099322e-11,2467.3433366531,2.3396779304749,3.0031621287008e-11,1425.0579646831,4959.075140635,-1.2325418463632e-11,2849.2536521883,5730.501552279,-10.862536194775,1.5327001820498e-12,4963.3502022095,4.428966741965e-11,2864.2487331921
1.6689999999999,3884.5213182178,-9.3565225012249e-12,2223.756283748,4481.9061784045,-0.00060703340597001,9.4399479552698e-12,3889.6408847513,4.2740755379356e-11,2226.6963824672,4309.5349006531,5.1639326495434e-11,2462.8117408201,2.3431777542451,3.0009078555437e-11,1417.324411403,4963.5527969068,-1.1955485212933e-11,2841.4650909872,5730.4981545015,-10.868243741425,-1.8096808773738e-13,4967.8374513869,4.2374762553032e-11,2856.4520430189
1.6699999999999,3888.0008464087,-9.7160196554924e-12,2217.6467354274,4481.9049367771,-0.00061273604097778,1.3519699249009e-11,3893.1326954759,4.6745188449215e-11,2220.5831841488,4317.2748408345,5.1756872225528e-11,2458.2558405606,2.3466775693358,3.0042725251977e-11,1409.605134956,4968.0182206591,-1.2414902439417e-11,2833.669493112,5730.4947479019,-10.873913399578,5.0315602379003e-12,4972.3124642095,4.7491682461653e-11,2848.6482857652
1.6709999999999,3891.4707655284,-9.2765413406415e-12,2211.5317427909,4481.9036951595,-0.00061845578261455,1.4886643133483e-11,3896.614898306,4.8028928056887e-11,2214.4645102113,4325.0004279107,5.1725346228437e-11,2453.6756808537,2.3501773757413,2.9958126257501e-11,1401.9002116219,4972.471400834,-1.1853386328031e-11,2825.8668777746,5730.4913325401,-10.879545155294,6.7778985549105e-12,4976.7752295477,4.9132161013266e-11,2840.8374806353
1.6719999999999,3894.9310670585,-9.2632637671564e-12,2205.4113209516,4481.9024535531,-0.00062419264833125,6.0567783427556e-12,3900.0874846563,3.9244454907994e-11,2208.3403757559,4332.7115857436,5.1721242740055e-11,2449.0713069178,2.353677173461,2.9930196342176e-11,1394.2097175387,4976.9123264032,-1.1836455426906e-11,2818.0572642049,5730.4879084771,-10.885138994668,-4.5035667903259e-12,4981.2257363031,3.7907537352166e-11,2833.0196468516
1.6729999999999,3898.3817425043,-9.1896247556011e-12,2199.2854850358,4481.9012119569,-0.00062994668024885,1.2841429308796e-11,3903.5504459634,4.6057402683375e-11,2202.210795896,4340.4082383375,5.1950161186753e-11,2444.4427642102,2.3571769624916,2.9714037654005e-11,1386.5337287019,4981.3409863692,-1.1742391781144e-11,2810.2406716495,5730.4844757715,-10.890694903911,4.1651742818671e-12,4985.6639734051,4.6613227167036e-11,2825.1948036526
1.6739999999999,3901.8227833951,-9.0965637800089e-12,2193.1542501834,4481.8999703707,-0.00063571772693649,1.8952788991e-11,3907.0037736883,5.2134932655712e-11,2196.0757857587,4348.0903098401,5.1702063637304e-11,2439.7900984268,2.3606767428287,2.974932366423e-11,1378.872320964,4985.7573697642,-1.1623542406358e-11,2802.4171193728,5730.4810344827,-10.896212869088,1.1976580317763e-11,4990.0899298144,5.43792528368e-11,2817.3629702945
1.6749999999999,3905.2541812837,-9.3442961701662e-12,2187.0176315474,4481.8987287939,-0.00064150601428992,1.351476396072e-11,3910.4474593153,4.6787902545364e-11,2189.9353604846,4355.757724543,5.1769088148246e-11,2435.1133555015,2.3641765144677,2.9527891416692e-11,1371.2255700333,4990.161465651,-1.1940150257406e-11,2794.586626656,5730.4775846693,-10.901692876834,5.0286693212276e-12,4994.5035945209,4.7546903914064e-11,2809.524166051
1.6759999999999,3908.6759277472,-9.6053755227477e-12,2180.8756442939,4481.8974872282,-0.00064731136558294,9.4267779346402e-12,3913.8814943545,4.2846002787367e-11,2183.7895352284,4363.4104068823,5.1673911677375e-11,2430.4125816059,2.3676762774102,2.9500156657758e-11,1363.5935514734,4994.5532631226,-1.2273772276306e-11,2786.7492127979,5730.4741263932,-10.907134913369,-1.9465505596283e-13,4998.9049565475,4.2510011136199e-11,2801.6784102142
1.6769999999999,3912.088014386,-9.0578933242824e-12,2174.7283036025,4481.8962456722,-0.00065313388006416,9.4363562103128e-12,3917.3058703373,4.2751917457562e-11,2177.6383251569,4371.0482814399,5.1790858927869e-11,2425.6878231487,2.3711760316464,2.9447878163724e-11,1355.9763407028,4998.9327513023,-1.1574262381853e-11,2778.9048971142,5730.4706597124,-10.912538965355,-1.8286934466705e-13,5003.2940049443,4.2389899750084e-11,2793.8257220918
1.6779999999999,3915.4904328247,-9.2151702935084e-12,2168.5756246656,4481.8950041265,-0.00065897351333888,6.047908701623e-12,3920.7205788206,3.9271014391773e-11,2171.4817454511,4378.6712729435,5.190609227157e-11,2420.9391267751,2.374675777178,2.9366755555094e-11,1348.3740129933,5003.2999193438,-1.1775261321567e-11,2771.0536989377,5730.4671846874,-10.917905019367,-4.5092402034541e-12,5007.6707287935,3.7942025389592e-11,2785.9661210099
1.6789999999999,3918.8831747119,-8.8047139024106e-12,2162.4176226888,4481.8937625903,-0.00066483034555631,1.0810552106277e-11,3924.125611384,4.3919216353994e-11,2165.3198113045,4386.2793062681,5.1859109020946e-11,2416.1665393669,2.3781755139997,2.9295530411255e-11,1340.7866434702,5007.6547564309,-1.1250833598098e-11,2763.1956376182,5730.4637013768,-10.92323306223,1.5769122119202e-12,5012.0351172063,4.3881742857466e-11,2778.0996263111
1.6799999999999,3922.2662317197,-9.1305157878807e-12,2156.254312891,4481.8925210653,-0.0006707042368248,7.3975192291242e-12,3927.5209596328,4.0741956683354e-11,2159.1525379249,4393.8723064362,5.1865177083665e-11,2411.3701080414,2.3816752421095,2.9029198315988e-11,1333.2143071109,5011.9972517781,-1.1667167232332e-11,2755.3307325227,5730.4602098425,-10.928523080587,-2.7892748874492e-12,5016.387159327,3.9821842004462e-11,2770.2262573562
1.6809999999999,3925.6395955446,-8.7870093146147e-12,2150.0857105038,4481.8912795485,-0.00067659540212617,1.2176586995649e-11,3930.9066151926,4.5275718937865e-11,2152.9799405312,4401.4501986187,5.2092125751857e-11,2406.5498801512,2.3851749615046,2.9246017933804e-11,1325.6570787444,5016.3273946302,-1.1228323826273e-11,2747.459003035,5730.4567101405,-10.933775061618,3.3189189244109e-12,5020.7268443248,4.5615370855567e-11,2762.346033521
1.6819999999999,3929.0032579068,-8.8974175249668e-12,2143.9118307719,4481.890038043,-0.00068250362716071,1.1490964429983e-11,3934.2825697178,4.4634387331988e-11,2146.8020343582,4409.0129081356,5.2142500386876e-11,2401.7059032839,2.388674672177,2.9280852915925e-11,1318.1150330505,5020.6451742624,-1.1369447050491e-11,2739.5804685558,5730.4532023344,-10.938988992062,2.4443294610599e-12,5025.0541614065,4.4795966415434e-11,2754.4589742012
1.6829999999999,3932.3572105504,-9.253826871447e-12,2137.7326889531,4481.8887965469,-0.00068842909536215,8.0931580881405e-12,3937.6488148829,4.1301028569363e-11,2140.6188346517,4416.560360457,5.2046420992435e-11,2396.8382252613,2.3921743741284,2.8987446124007e-11,1310.5882445593,5024.9505799805,-1.1824902168556e-11,2731.6951485027,5730.4496864819,-10.94416485925,-1.9017547953082e-12,5029.3690998037,4.0536550678649e-11,2746.5650988072
1.6839999999999,3935.7014452438,-9.6040085606486e-12,2131.5483003179,4481.8875550608,-0.00069437178888165,1.4170687193116e-11,3941.0053423879,4.765704931381e-11,2134.4303566713,4424.0924812035,5.1755991853364e-11,2391.9468941392,2.395674067354,2.8742333166298e-11,1303.0767876502,5029.2436011206,-1.2272481642039e-11,2723.80306231,5730.4461626432,-10.949302650353,5.86825033011e-12,5033.6716487808,4.8658733292628e-11,2738.6644267675
1.6849999999999,3939.0359537791,-9.1088386833249e-12,2125.3586801499,4481.8863135847,-0.00070033153400573,1.2830008756792e-11,3944.3521439569,4.6082465100794e-11,2128.2366156895,4431.609196147,5.2035114064819e-11,2387.0319582067,2.39917375185,2.8855439739017e-11,1295.580736551,5033.5242270496,-1.1639758601412e-11,2715.9042294291,5730.4426308783,-10.954402352437,4.1623605603891e-12,5037.9617976328,4.6646765443359e-11,2730.756977527
1.6859999999999,3942.3607279726,-9.3115827548562e-12,2119.1638437452,4481.8850721184,-0.00070630849990039,1.6212469734767e-11,3947.6892113374,4.9644863740761e-11,2122.0376269918,4439.1104312116,5.2117359039539e-11,2382.0934659859,2.4026734276157,2.8640629798349e-11,1288.1001653378,5037.7924471647,-1.1898863838677e-11,2707.9986693276,5730.4390912469,-10.959463953101,8.4763585039838e-12,5042.2395356842,5.1199153423831e-11,2722.8427705478
1.6869999999999,3945.6757596646,-9.4223830127138e-12,2112.9638064132,4481.8838306619,-0.00071230277120549,9.4240977868698e-12,3951.0165363012,4.2889567765381e-11,2115.8334058769,4446.5961124741,5.2102414396793e-11,2377.1314662315,2.4061730946458,2.8484399734741e-11,1280.6351479335,5042.0482508937,-1.2040507479938e-11,2700.0864014901,5730.4355438088,-10.964487439928,-2.0133981287751e-13,5046.5048522908,4.2566892718976e-11,2714.9218253089
1.6879999999999,3948.9810407195,-8.749660718177e-12,2106.7585834755,4481.8825892153,-0.00071831411270296,1.2861549499033e-11,3954.3341106442,4.5893865097124e-11,2109.6239676558,4454.0661661651,5.2128882807589e-11,2372.14600793,2.4096727529344,2.856451360167e-11,1273.1857581077,5046.2916276951,-1.118089648644e-11,2692.1674454177,5730.431988624,-10.969472800188,4.1920373422544e-12,5050.757736839,4.640612893958e-11,2706.9941613054
1.6889999999999,3952.2765630259,-9.8914279544893e-12,2100.5481902668,4481.8813477785,-0.00072434266502341,1.009233495386e-11,3957.6419261864,4.3736556043505e-11,2103.409327653,4461.5205186691,5.1818832211281e-11,2367.1371402994,2.4131724024837,2.8238692634241e-11,1265.7520694757,5050.5225670581,-1.264000015766e-11,2684.2418206283,5730.4284257524,-10.974420021724,6.5096972950984e-13,5054.9981787454,4.3649470322926e-11,2699.0597980498
1.6899999999999,3955.5623184963,-8.4310197712156e-12,2094.3326421345,4481.8801063516,-0.00073038844840312,1.354183779001e-11,3960.9399747718,4.6495726539753e-11,2097.1895012054,4468.9590965261,5.2811905890127e-11,2362.1049127888,2.416672043286,2.8353458469965e-11,1258.3341554977,5054.7410585024,-1.0773819336674e-11,2676.3095466559,5730.424855254,-10.979329092322,5.0620427988202e-12,5059.2261674574,4.7175490076878e-11,2691.1187550711
1.6909999999999,3958.8382990675,-9.5287909507302e-12,2088.1119544384,4481.8788649339,-0.00073645153469215,1.2133780091794e-11,3964.2282482679,4.5619710266342e-11,2090.9645036627,4476.3818264313,5.2118229870723e-11,2357.0493750778,2.4201716753394,2.8050042323591e-11,1250.9320894781,5058.9470915784,-1.2176669395014e-11,2668.3706430512,5730.4212771879,-10.984199999925,3.2660558285658e-12,5063.4416924525,4.6056165825537e-11,2683.1710519146
1.6919999999999,3962.1044967004,-8.9239240996797e-12,2081.8861425511,4481.8776235261,-0.00074253172505223,9.4550903564916e-12,3967.5067385676,4.2551437200167e-11,2084.7343503876,4483.7886352368,5.2300783495718e-11,2351.970577076,2.4236712986429,2.8207592511764e-11,1243.545944565,5063.1406558672,-1.1403752941952e-11,2660.4251293815,5730.4176916148,-10.989032732224,-1.5445283940707e-13,5067.6447432401,4.2135355968198e-11,2675.2167081424
1.6929999999999,3965.3609033801,-8.6787729780546e-12,2075.6552218577,4481.8763821284,-0.00074862916670781,6.0665188150733e-12,3970.7754375874,3.9136672201623e-11,2078.4990567556,4491.1794499516,5.2634710825949e-11,2346.8685689225,2.4271709131905,2.8232680082674e-11,1236.1757937493,5067.3217409808,-1.1090538210023e-11,2652.47302523,5730.4140985952,-10.993827277452,-4.4870929888363e-12,5071.8353093601,3.7771736259573e-11,2667.2557433338
1.6939999999999,3968.6075111159,-8.9012790194243e-12,2069.4192077559,4481.8751407394,-0.00075474382589391,1.0813854152414e-11,3974.0343372667,4.3943491206955e-11,2072.2586381541,4498.5541977427,5.2653671353542e-11,2341.7434009856,2.430670518979,2.7922994645657e-11,1228.821709864,5071.4903365617,-1.13749010211e-11,2644.5143501968,5730.4104981873,-10.998583623696,1.5776555409297e-12,5076.0133803809,4.3914494436692e-11,2659.2881770828
1.6949999999999,3971.8443119412,-8.2858407635111e-12,2063.1781156559,4481.8738993612,-0.00076087577389217,1.1517268909411e-11,3977.283429572,4.4414141635307e-11,2066.0131099846,4505.9128059358,5.2683695947464e-11,2336.595123862,2.4341701160078,2.7974383226548e-11,1221.4837655833,5075.6464322834,-1.0588502297182e-11,2636.5491238978,5730.4068904536,-11.003301759282,2.4755015745614e-12,5080.1789459058,4.45160661805e-11,2651.3140290023
1.6959999999999,3975.0712979138,-8.8231436046193e-12,2056.9319609803,4481.8726579917,-0.00076702484591351,1.69349369597e-11,3980.5227064906,4.9930041871871e-11,2059.7624876592,4513.2552020158,5.2795023561258e-11,2331.4237883764,2.4376697042689,2.7831569514303e-11,1214.1620334223,5079.79001785,-1.1275140543443e-11,2628.5773659654,5730.4032754518,-11.007981672318,9.3979476978312e-12,5084.3319955645,5.1565041299384e-11,2643.3333187191
1.6969999999999,3978.2884611157,-8.668635254061e-12,2050.6807591641,4481.8714166323,-0.00077319131600007,1.6939326677456e-11,3983.7521600365,4.9913513426592e-11,2053.5067866046,4520.5813136277,5.2784849408072e-11,2326.2294455813,2.4411692837628,2.7722274129061e-11,1206.856585736,5083.9210829967,-1.1077756767452e-11,2620.5990960481,5730.3996532434,-11.012623351576,9.403344422565e-12,5088.4725190205,5.154405374741e-11,2635.3460658782
1.6979999999999,3981.495793653,-8.3642502646253e-12,2044.4245256548,4481.8701752825,-0.0007793749192615,8.1203429397325e-12,3986.971782247,4.0985407775973e-11,2047.2460222587,4527.8910685772,5.3274405720227e-11,2321.0121467559,2.4446688544852,2.767949411342e-11,1199.5674947185,5088.0396174894,-1.0688810947457e-11,2612.6143338105,5730.3960238882,-11.01722678523,-1.8619420241728e-12,5092.6005059672,4.0134741016717e-11,2627.3522901399
1.6989999999999,3984.6932876565,-8.7614915322831e-12,2038.163275912,4481.8689339414,-0.00078557583702832,1.0830970668951e-11,3990.1815651829,4.3772054557356e-11,2040.9802100719,4535.1843948316,5.2984441487047e-11,2315.7719434063,2.4481684164335,2.7607658346918e-11,1192.2948324026,5092.1456111248,-1.1196460425467e-11,2604.6230989333,5730.3923874449,-11.021791962116,1.6000551578133e-12,5096.7159461275,4.3695990402381e-11,2619.3520111806
1.6999999999999,3987.8809352809,-8.9712542949982e-12,2031.897025408,4481.8676926106,-0.00079179399682516,1.9636839897197e-11,3993.3815009315,5.2724984968278e-11,2034.7093655081,4542.4612205204,5.3010467543357e-11,2310.5088872644,2.4516679696062,2.7346255468408e-11,1185.0386706587,5096.2390537307,-1.1464593163701e-11,2596.6254111132,5730.3887439758,-11.026318870846,1.2854719892708e-11,5100.8188292584,5.5137366894442e-11,2611.345248694
1.7009999999999,3991.0587287054,-9.0226541515914e-12,2025.6257896271,4481.8664512893,-0.00079802934800455,1.5555837000469e-11,3996.5715816024,4.8764555761471e-11,2028.4335040425,4549.7214739358,5.3053847773321e-11,2305.2230302875,2.4551675139927,2.7375317290801e-11,1177.7990811946,5100.3199351657,-1.1530311427865e-11,2588.6212900631,5730.3850935399,-11.030807500149,7.6380230265571e-12,5104.9091451449,5.0076322428982e-11,2603.3320223889
1.7019999999999,3994.2266601336,-8.6491994122362e-12,2019.3495840657,4481.8652099775,-0.00080428207019168,1.0835125331676e-11,3999.7517993301,4.3749944639293e-11,2022.1526411633,4556.9650835337,5.339053851805e-11,2299.9144246582,2.458667049597,2.7324920104377e-11,1170.5761355542,5104.3882453194,-1.1053109816306e-11,2580.6107555115,5730.3814361975,-11.035257839146,1.6040068578915e-12,5108.9868836041,4.366806222178e-11,2595.3123519906
1.7029999999999,3997.3847217934,-8.1322726330768e-12,2013.0684242328,4481.8639686743,-0.00081055199990487,1.5601845336499e-11,4002.9221462728,4.8321916780447e-11,2015.8667923703,4564.1919779345,5.3726332410742e-11,2294.5831227835,2.4621665764121,2.7349534963139e-11,1163.3699051173,5108.4439741125,-1.0392540994442e-11,2572.5938272031,5730.3777720077,-11.039669876611,7.6961822331745e-12,5113.052034483,4.9510930945351e-11,2587.2862572398
1.7039999999999,4000.5329059371,-8.6650825403822e-12,2006.7823256492,4481.8627273808,-0.00081683922212505,2.3728147051372e-11,4006.0826146147,5.6666550792006e-11,2009.5759731766,4571.4020859234,5.3366533414589e-11,2289.2291772942,2.4656660944379,2.7279498104882e-11,1156.1804610985,5112.4871114965,-1.1073447714338e-11,2564.5705248982,5730.3741010318,-11.044043601735,1.8082178115941e-11,5117.1045876613,6.0175133105578e-11,2579.2537578943
1.7049999999999,4003.6712048413,-8.9071007514097e-12,2000.4913038479,4481.8614860967,-0.00082314380017579,1.1507667214972e-11,4009.2331965632,4.4510818641985e-11,2003.2801991071,4578.5953364513,5.3294542390336e-11,2283.8526410447,2.4691656036676,2.7142001320091e-11,1149.007874547,5116.5176474541,-1.1382818299044e-11,2556.5408683731,5730.3704233299,-11.048379003772,2.4638398959942e-12,5121.144533049,4.4640758971315e-11,2571.2148737273
1.7059999999999,4006.7996108073,-8.9474955222713e-12,1994.1953743742,4481.8602448221,-0.00082946551549412,1.2839081360572e-11,4012.3738843505,4.6006617786254e-11,1996.9794856986,4585.7716586357,5.3059652158072e-11,2278.4535671123,2.4726651041013,2.7053227713569e-11,1141.8522163451,5120.535571999,-1.1434450608583e-11,2548.5048774196,5730.3667389623,-11.052676071711,4.1732086536461e-12,5125.1718605871,4.6552457201587e-11,2563.1696245277
1.7069999999999,4009.9181161606,-9.0748866754531e-12,1987.8945527851,4481.8590035569,-0.00083580457180688,1.7577992013351e-11,4015.5046702328,5.0875762803992e-11,1990.6738485006,4592.9309817611,5.3102770444791e-11,2273.0320087967,2.4761645957341,2.6886404561055e-11,1134.7135572084,5124.540875176,-1.1597320326295e-11,2540.4625718454,5730.363047989,-11.056934795175,1.022820456803e-11,5129.1865602473,5.2775202610822e-11,2555.1180301006
1.7079999999999,4013.0267132513,-8.7635038115152e-12,1981.5888546498,4481.8577623009,-0.00084216100236745,1.5567043314124e-11,4018.625546491,4.8661564361341e-11,1984.3633030744,4600.0732352797,5.3378365963419e-11,2267.5880196195,2.4796640785611,2.6955925339078e-11,1127.5919676845,5128.533547061,-1.119941639427e-11,2532.4139714738,5730.3593504701,-11.061155163666,7.6553286279535e-12,5133.1886220325,4.9945652648431e-11,2547.0601102666
1.7089999999999,4016.1253944539,-8.8929627550804e-12,1975.2782955494,4481.8565210546,-0.00084853463840773,1.4196494674268e-11,4021.7365054309,4.7369569204647e-11,1978.0478649936,4607.1983488124,5.3250352044509e-11,2262.1216533237,2.4831635525817,2.6732383667794e-11,1120.4875181525,5132.5135777609,-1.1364943708347e-11,2524.3590961436,5730.3556464666,-11.065337166521,5.9056622439546e-12,5137.1780359777,4.8294642590596e-11,2538.9958848624
1.7099999999999,4019.2141521674,-8.8671951725683e-12,1968.962891077,4481.8552798168,-0.00085492555967903,1.6239658923167e-11,4024.8375393812,4.9397944068552e-11,1971.7275498434,4614.3062521493,5.3333717650594e-11,2256.632963873,2.4866630177905,2.6694381947967e-11,1113.4002788223,5136.4809574141,-1.1332032534561e-11,2516.2979657093,5730.3519360372,-11.069480793486,8.5143263967025e-12,5141.1547921467,5.0887003812117e-11,2530.9253737396
1.7109999999999,4022.2929788153,-8.9522590729363e-12,1962.6426568375,4481.8540385886,-0.00086133387759446,9.4293756830455e-12,4027.9286406972,4.2759715906948e-11,1965.4023732218,4621.3968752503,5.3556032872382e-11,2251.1220054514,2.4901624741855,2.6466768013322e-11,1106.330319734,5140.4356761899,-1.1440778879823e-11,2508.2306000408,5730.3482192435,-11.07358603445,-1.8606904211849e-13,5145.1188806371,4.2403552891201e-11,2522.8485967667
1.7119999999999,4025.3618668459,-8.6817948663498e-12,1956.3176084477,4481.8527973694,-0.00086775944311057,1.7606849138374e-11,4031.0098017573,5.0597979799061e-11,1959.0723507381,4628.470148246,5.3560138962849e-11,2245.5888324627,2.4936619217627,2.6585051868255e-11,1099.277710757,5144.3777242888,-1.1095138696682e-11,2500.1570190234,5730.3444961452,-11.077652879056,1.0265893170269e-11,5149.0702915762,5.2420925239494e-11,2514.7655738267
1.7129999999999,4028.4208087316,-9.0403483310464e-12,1949.9877615362,4481.8515561594,-0.00087420236638991,1.5558389646064e-11,4034.0810149649,4.8713273866074e-11,1952.7374980139,4635.5260014382,5.3546948125538e-11,2240.0334995299,2.4971613605193,2.6393048337126e-11,1092.2425215893,5148.3070919427,-1.1553383250096e-11,2492.077242558,5730.3407668028,-11.081681317378,7.6445594646146e-12,5153.0090151229,5.0012412614042e-11,2506.6763248188
1.7139999999999,4031.4697969699,-8.6245316444078e-12,1943.6531317432,4481.8503149585,-0.0008806625254465,1.8296249064409e-11,4037.1422727481,5.123007486979e-11,1946.3978306826,4642.5643653006,5.4011061248471e-11,2234.4560614948,2.5006607904524,2.6530268433522e-11,1085.2248217572,5152.2237694148,-1.1022058266086e-11,2483.9912905607,5730.3370312767,-11.085671339287,1.114399111185e-11,5156.9350414673,5.3229027956181e-11,2498.5808696574
1.7149999999999,4034.5088240824,-8.6735132964755e-12,1937.313734721,4481.8490737671,-0.00088714009945079,7.4204895700314e-12,4040.1935675594,4.0488044340814e-11,1940.0533643898,4649.5851704797,5.3769714375429e-11,2228.8565734171,2.5041602115575,2.6413918795265e-11,1078.2246806143,5156.1277469992,-1.1084681783569e-11,2475.8991829628,5730.3332896276,-11.089622935133,-2.7549386383274e-12,5160.8483608312,3.9500751627952e-11,2490.4792282728
1.7159999999999,4037.5378826155,-8.3013942941967e-12,1930.9695861332,4481.8478325843,-0.00089363493566452,1.2189825537856e-11,4043.2348918754,4.5076080888717e-11,1933.7041147921,4656.5883477952,5.3987769116359e-11,2223.2350905743,2.5076596238334,2.6260975165282e-11,1071.2421673406,5160.0190150217,-1.0609138567652e-11,2467.8009397111,5730.3295419149,-11.093536094936,3.3429595897028e-12,5164.7489634664,4.5364435298512e-11,2482.3714206097
1.7169999999999,4040.5569651405,-8.3126665273436e-12,1924.6207016553,4481.8465914108,-0.00090014720399267,4.730464284175e-12,4046.2662381982,3.7557951540479e-11,1927.3500975589,4663.5738282411,5.3979870920373e-11,2217.5916684607,2.5111590272743,2.6314590263754e-11,1064.2773509423,5163.8975638394,-1.0623613100336e-11,2459.6965807674,5730.3257881998,-11.097410809225,-6.190450929644e-12,5168.6368396575,3.5756241717477e-11,2474.2574666295
1.7179999999999,4043.5660642529,-7.9812059738948e-12,1918.2670969744,4481.8453502459,-0.00090667670821176,2.0352636243004e-11,4049.2875990535,5.3122844664855e-11,1920.9913283704,4670.5415429857,5.4047205946817e-11,2211.9263627875,2.5146584218787,2.6271375699882e-11,1057.3303002509,5167.7633838404,-1.0200028321972e-11,2451.5861261088,5730.3220285418,-11.101247068155,1.377014821613e-11,5172.511979719,5.5648652352858e-11,2466.1373863074
1.7189999999999,4046.5651725733,-8.0761959619924e-12,1911.908787789,4481.8441090901,-0.00091322359185142,2.0334884817674e-11,4052.2989669928,5.3183138448709e-11,1914.6278229193,4677.491423373,5.4295148238515e-11,2206.2392294814,2.5181578076407,2.6023975509271e-11,1050.4010839225,5171.6164654446,-1.0321452026396e-11,2443.4695957274,5730.3182630021,-11.105044862409,1.3751400192163e-11,5176.3743739982,5.572586316005e-11,2458.0111996354
1.7199999999999,4049.5542827465,-7.8727996344341e-12,1905.5457898093,4481.8428679436,-0.00091978779533974,1.0191915887636e-11,4055.3003345918,4.2744867541356e-11,1908.2595969097,4684.4234009229,5.4401611687682e-11,2200.5303246848,2.5216571845609,2.6116497853224e-11,1043.489770437,5175.4567991031,-1.0061541877437e-11,2435.3470096305,5730.3144916413,-11.10880418251,7.8474206299806e-13,5180.2240128733,4.2385536920542e-11,2449.8789266199
1.7209999999999,4052.5333874425,-8.4356688301312e-12,1899.178118757,4481.8416268057,-0.00092636932873802,8.8016009411329e-12,4058.2916944503,4.1665984898409e-11,1901.8866660572,4691.337407332,5.3953300160892e-11,2194.7997047547,2.5251565526355,2.6045837361877e-11,1036.5964280979,5179.2843752984,-1.0780931702925e-11,2427.2183878402,5730.310714519,-11.112525019159,-9.8629091005442e-13,5184.0608867531,4.1006795181708e-11,2441.7405872823
1.7219999999999,4055.5024793556,-7.7444370361057e-12,1892.8057903652,4481.8403856771,-0.00093296826918277,1.6291802976132e-11,4061.2730391938,4.8873335933841e-11,1895.5090460892,4698.2333744745,5.4357301645935e-11,2189.0474262628,2.5286559118555,2.5925198619825e-11,1029.7211250308,5183.0991845444,-9.8975203033369e-12,2419.0837503936,5730.3069316967,-11.116207363242,8.5869436561303e-12,5187.8849860792,5.021821933987e-11,2433.5962016598
1.7229999999999,4058.4615512052,-8.2184294092347e-12,1886.4288203785,4481.8391445573,-0.00093958454601761,1.2871675079962e-11,4064.2443614715,4.5777807759773e-11,1889.1267527445,4705.1112344026,5.4234451998814e-11,2183.2735459939,2.5321552622265,2.5817006518714e-11,1022.8639291837,5186.9012173868,-1.0503375946769e-11,2410.943117343,5730.3031432339,-11.119851205548,4.2132573471743e-12,5191.6963013231,4.6262117400775e-11,2425.4457898038
1.7239999999999,4061.4105957352,-8.5541781991161e-12,1880.0472245526,4481.8379034461,-0.00094621811888373,2.3719454352034e-11,4067.2056539579,5.6692416386395e-11,1882.7398017734,4711.9709193471,5.4002757127192e-11,2177.4781209466,2.5356546037378,2.5643601825331e-11,1016.0249083256,5190.6904644024,-1.093248408468e-11,2402.7965087551,5730.2993491914,-11.123456537003,1.8080816358013e-11,5195.4948229889,6.0211707147984e-11,2417.2893717811
1.7249999999999,4064.3496057144,-8.8842995460414e-12,1873.661018655,4481.8366623443,-0.0009528691659284,1.6242727648996e-11,4070.1569093526,4.930688930066e-11,1876.348208938,4718.8123617183,5.3977490879764e-11,2171.6612083318,2.5391539363874,2.5555462260241e-11,1009.204130046,5194.4669161996,-1.1354459039659e-11,2394.6439447118,5730.2955496303,-11.127023348905,8.5269846739067e-12,5199.2805416122,5.077272543369e-11,2409.1269676741
1.7259999999999,4067.2785739363,-8.3914541981756e-12,1867.2702184641,4481.8354212516,-0.00095953748331112,1.5562704770711e-11,4073.0981203795,4.8638000745005e-11,1869.9519900116,4725.6354941068,5.3996246709986e-11,2165.8228655722,2.5426532601772,2.546570593287e-11,1002.4016617546,5198.2305634186,-1.0724657273364e-11,2386.4854453096,5730.2917446108,-11.130551632161,7.6578405075467e-12,5203.05344776,4.9917976002734e-11,2400.9585975792
1.7269999999999,4070.1974932194,-7.7876316506575e-12,1860.8748397697,4481.8341801662,-0.00096622319296102,1.6961377614921e-11,4076.0292797857,4.9610555247215e-11,1863.5511607782,4732.4402492837,5.4734692472858e-11,2159.9631503025,2.5461525750979,2.5601426360822e-11,995.6175706801,5201.9813967309,-9.9529481878413e-12,2378.3210306596,5730.2879341914,-11.134041378183,9.443926543562e-12,5206.8135320282,5.1161098794938e-11,2392.7842816072
1.7279999999999,4073.1063564068,-8.9429297300825e-12,1854.4748983731,4481.8329390906,-0.00097292626634271,1.6238826255899e-11,4078.950380347,4.9358687276291e-11,1857.1457370348,4739.2265602015,5.4217179357163e-11,2154.082120368,2.5496518811503,2.5399939096449e-11,988.85192386985,5205.7194068397,-1.1429530932805e-11,2370.1507208878,5730.2841184356,-11.137492578296,8.5210137557024e-12,5210.5607850498,5.083933014155e-11,2384.6040398857
1.7289999999999,4076.0051563665,-8.7052552666389e-12,1848.0704100862,4481.8316980234,-0.00097964676501761,1.6933658468499e-11,4081.8614148604,4.9870843565891e-11,1850.7357345885,4745.994359995,5.4206092739428e-11,2148.1798338242,2.5531511783287,2.5153434890512e-11,982.10478818915,5209.4445844797,-1.1125836363313e-11,2361.9745361345,5730.2802974024,-11.140905224028,9.4091288579956e-12,5214.2951974847,5.1494037332789e-11,2376.4178925552
1.7299999999999,4078.8938859916,-8.8930356134664e-12,1841.6613907327,4481.8304569649,-0.00098638455762057,2.0310351490915e-11,4084.7623761497,5.3444203056141e-11,1844.3211692578,4752.7435819816,5.4083026251872e-11,2142.2563489367,2.5566504666299,2.5208766497864e-11,975.37623032056,5213.1569204173,-1.1365845764555e-11,2353.792496555,5730.2764711527,-11.144279306759,1.3722471076116e-11,5218.0167600264,5.6061228576043e-11,2368.2258597718
1.7309999999999,4081.7725381996,-8.3295627339997e-12,1835.2478561469,4481.8292159152,-0.00099313982735794,1.7612082799101e-11,4087.6532570627,5.0606585762225e-11,1837.9020568729,4759.474159662,5.4270381591448e-11,2136.31172418,2.5601497460518,2.4945908186358e-11,968.66631676324,5216.8564054507,-1.0645727355207e-11,2345.6046223187,5730.2726397471,-11.147614818364,1.0271618625102e-11,5221.7254633997,5.2434652106359e-11,2360.0279617061
1.7319999999999,4084.6411059334,-8.3993229038626e-12,1828.8298221744,4481.8279748739,-0.00099991239716246,1.5577642474562e-11,4090.5340504722,4.8542123445849e-11,1831.4784132748,4766.1860267211,5.4236764385207e-11,2130.3460182373,2.5636490165895,2.5017128993388e-11,961.97511383228,5220.5430304096,-1.0734926836342e-11,2337.4109336096,5730.2688032458,-11.150911750354,7.6738216475691e-12,5225.4212983607,4.9796215761955e-11,2351.824218543
1.7329999999999,4087.4995821606,-8.4022788726656e-12,1822.4073046718,4481.8267338418,-0.0010067024203408,1.6248797446439e-11,4093.4047492768,4.9297665775938e-11,1825.0502543161,4772.8791170285,5.4015569794785e-11,2124.3592899999,2.56714827824,2.4709033430437e-11,955.30268765808,5224.2167861553,-1.0738736289095e-11,2329.2114506262,5730.2649617106,-11.154170094759,8.5291686907629e-12,5229.1042556983,5.0762009179417e-11,2343.6146504828
1.7339999999999,4090.3479598736,-8.045245025734e-12,1815.9803195067,4481.8254928171,-0.0010135097954276,1.829052014013e-11,4096.2653463975,5.1247421237188e-11,1818.6175958596,4779.5533646391,5.4203166260924e-11,2118.3515985665,2.5706475310029,2.4714122675434e-11,948.64910418569,5227.8776635812,-1.0282490137126e-11,2321.0061935814,5730.2611151996,-11.157389843373,1.1142702212308e-11,5232.7743262304,5.3254136343772e-11,2335.3992777386
1.7349999999999,4093.18623209,-7.7585160518368e-12,1809.5488825576,4481.8242518026,-0.0010203345848936,1.4906216018462e-11,4099.1158347846,4.7713201445365e-11,1812.1804537809,4786.2087037938,5.3876542116527e-11,2112.3230032426,2.5741467748722,2.4670932397691e-11,942.01442917413,5231.5256536121,-9.9160193944847e-12,2312.7951827021,5730.2572637772,-11.160570988304,6.8238747985561e-12,5236.4315008117,4.8737162743062e-11,2327.1781205409
1.7359999999999,4096.0143918522,-8.0489954978891e-12,1803.113009714,4481.8230107958,-0.0010271767630456,1.4223323907547e-11,4101.9562074085,4.7136547269566e-11,1805.7388439648,4792.8450689202,5.4142950539626e-11,2106.2735635401,2.5776460098426,2.4586022887713e-11,935.39872819578,5235.1607472047,-1.0287340423965e-11,2304.5784382298,5730.2534075008,-11.163713521634,5.947193258693e-12,5240.0757703227,4.8000259149361e-11,2318.9511991313
1.7369999999999,4098.8324322276,-8.1064287227317e-12,1796.6727168762,4481.8217697976,-0.001034036309477,1.8981170801791e-11,4104.7864572677,5.1820294583171e-11,1799.292782308,4799.4623946332,5.4136787067116e-11,2100.2033391764,2.5811452359168,2.4393847185278e-11,928.80206663571,5238.7829353474,-1.0360767799256e-11,2296.35598042,5730.2495464323,-11.16681743555,1.2025874220056e-11,5243.7071256795,5.3986775119808e-11,2310.7185337679
1.7379999999999,4101.6403463088,-8.2300208315012e-12,1790.2280199553,4481.820528808,-0.0010409133304279,1.1505579475268e-11,4107.6065773845,4.4488007895638e-11,1792.8422847183,4806.0606157356,5.4002085789206e-11,2094.1123900741,2.5846444530838,2.4239950758426e-11,922.22450969103,5242.3922090607,-1.0518801107917e-11,2288.1278295426,5730.2456806323,-11.169882722499,2.4701178602538e-12,5247.325557829,4.4615340935583e-11,2302.4801447226
1.7389999999999,4104.438127213,-8.692609132499e-12,1783.7789348734,4481.8192878268,-0.0010478077030598,1.6904109188809e-11,4110.4165608066,5.0104378111759e-11,1786.3873671142,4812.6396672189,5.3717535627995e-11,2088.0007763604,2.5881436613464,2.4054991505651e-11,915.66612237027,5245.9885593966,-1.1110078135257e-11,2279.8940058813,5730.2418101614,-11.172909374726,9.3763026856597e-12,5250.9310577497,5.1793910306464e-11,2294.2360522813
1.7399999999999,4107.2257680829,-8.8199517134235e-12,1777.3254775631,4481.8180468538,-0.0010547195499839,2.3691252952485e-11,4113.2164006063,5.6897646316667e-11,1779.9280454249,4819.1994842638,5.3887720674606e-11,2081.8685583664,2.5916428607001,2.4064419727743e-11,909.12696949272,5249.5719774391,-1.1272857647349e-11,2271.6545297342,5730.2379350799,-11.175897384888,1.8049974709333e-11,5254.5236164518,6.0476762486772e-11,2285.9862767443
1.7409999999999,4110.003262086,-8.948668195341e-12,1770.8676639678,4481.8168058894,-0.0010616487423931,1.1463750955454e-11,4116.0060898815,4.4861379368266e-11,1773.464335591,4825.7400022407,5.3604074304325e-11,2075.7157966262,2.5951420511405,2.3871217936372e-11,902.60711568778,5253.1424543041,-1.1437427394068e-11,2263.4094214131,5730.2340554491,-11.178846745415,2.4162859213472e-12,5258.1032249783,4.5092899900179e-11,2277.7308384262
1.7419999999999,4112.7706024148,-8.6951973399252e-12,1764.4055100416,4481.8155649338,-0.0010685953892562,1.1478158701284e-11,4118.7856217552,4.4690022515947e-11,1766.9962535635,4832.2611567108,5.3999148902362e-11,2069.5425518772,2.5986412326635,2.3842524309037e-11,896.10662539437,5256.6999811393,-1.1113512887739e-11,2255.1587012439,5730.2301713301,-11.181757449139,2.4376412346983e-12,5261.6698744038,4.4874005553086e-11,2269.4697576558
1.7429999999999,4115.5277822871,-9.0590694667991e-12,1757.9390317493,4481.814323986,-0.0010755593828549,6.7007892290416e-12,4121.5549893742,4.014922509038e-11,1760.523815304,4838.7628834262,5.3736544727845e-11,2063.3488850583,2.6021404052672,2.377338126705e-11,889.62556286024,5260.2445491245,-1.1578592251649e-11,2246.9023895665,5730.2262827821,-11.184629488705,-3.6632042885176e-12,5265.2235558332,3.9070308620326e-11,2261.2030547751
1.7439999999999,4118.2747949456,-8.9693599769625e-12,1751.4682450663,4481.8130830469,-0.0010825408982669,1.1452920209432e-11,4124.3141859121,4.4901984040668e-11,1754.0470367856,4845.2451183309,5.3652216350231e-11,2057.1348573104,2.6056395689485,2.3540900132013e-11,883.16399214135,5263.7761494713,-1.1464017235507e-11,2238.6405067345,5730.2223898673,-11.18746285722,2.4074310253641e-12,5268.7642604058,4.5145166251148e-11,2252.9307501416
1.7449999999999,4121.0116336583,-8.4930881771861e-12,1744.9931659783,4481.8118421155,-0.0010895398090724,2.0310682823099e-11,4127.063204566,5.3417283617241e-11,1747.5659339912,4851.7077975614,5.3910645045341e-11,2050.9005299751,2.6091387237032,2.3603290762869e-11,876.72197710127,5267.2947734233,-1.0855330523363e-11,2230.3730731155,5730.2184926451,-11.190257547498,1.3727243300399e-11,5272.2919792906,5.6029193437612e-11,2244.6528641252
1.7459999999999,4123.7382917183,-9.4349424106799e-12,1738.5138104818,4481.8106011934,-0.0010965561290277,1.0768716647569e-11,4129.8020385604,4.4295671297601e-11,1741.0805229152,4858.150857447,5.3446046199834e-11,2044.6459645943,2.612637869528,2.3354747823168e-11,870.2995814105,5270.8004122562,-1.2059186982327e-11,2222.1001090906,5730.2145911783,-11.193013552632,1.5336369327268e-12,5275.8067036915,4.4370425736351e-11,2236.3694171113
1.7469999999999,4126.4547624436,-8.5574221320162e-12,1732.0301945837,4481.8093602783,-0.0011035899169656,1.0805214362142e-11,4132.5306811413,4.3993266495013e-11,1734.5908195615,4864.574234511,5.4151847936335e-11,2038.3712229096,2.6161370064195,2.3425822479745e-11,863.89686854589,5274.2930572775,-1.0937598049487e-11,2213.8216350549,5730.2106855248,-11.195730865859,1.576102096057e-12,5279.3084248399,4.3984014347354e-11,2228.0804294972
1.7479999999999,4129.1610391778,-8.7794424508125e-12,1725.5423343013,4481.8081193723,-0.001110641087962,1.0792977622742e-11,4135.2491255839,4.4069808566305e-11,1728.0968399459,4870.9778654706,5.3984794065598e-11,2032.0763668619,2.6196361343766,2.347053107421e-11,857.51390178998,5277.7726998269,-1.122147513799e-11,2205.537671417,5730.206775748,-11.198409480339,1.5655367627265e-12,5282.7971340042,4.4081963773701e-11,2219.7859216963
1.7489999999999,4131.8571152892,-8.673329415787e-12,1719.0502456624,4481.8068784746,-0.0011177097148902,7.4004014721796e-12,4137.9573651862,4.0624171561421e-11,1721.5986000941,4877.3616872383,5.4236082638881e-11,2025.7614585902,2.6231352533919,2.3173766291323e-11,851.15074423038,5281.2393312761,-1.1085798945487e-11,2197.2482385991,5730.2028619078,-11.201049389522,-2.771091515974e-12,5286.2728224819,3.9677938885874e-11,2211.4859141342
1.7499999999999,4134.5429841718,-9.0349776271648e-12,1712.5539447051,4481.8056375844,-0.0011247957965566,7.3650504098244e-12,4140.655393271,4.1005434291141e-11,1715.0961160419,4883.725636922,5.3558504853335e-11,2019.4265604318,2.626634363467,2.2789559735864e-11,844.80745875917,5284.6929430288,-1.1548095812941e-11,2188.9533570371,5730.198944064,-11.203650586861,-2.81899937421e-12,5289.7354816022,4.016537449858e-11,2203.1804272503
1.7509999999999,4137.2186392444,-8.3459211763781e-12,1706.0534474777,4481.8043967025,-0.0011318992912379,1.4882811129324e-11,4143.3432031878,4.7945696891871e-11,1708.5894038362,4890.0696518256,5.4259739062923e-11,2013.071734921,2.6301334645938,2.311245509215e-11,838.48410807225,5288.1335265211,-1.0667425276445e-11,2180.6530471802,5730.1950222783,-11.206213065852,6.7917399135253e-12,5293.1851027282,4.903644330867e-11,2194.8694814983
1.7519999999999,4139.8840739513,-8.5457856069393e-12,1699.5487700389,4481.8031558291,-0.0011390202471944,1.2830371313999e-11,4146.0207883111,4.6049717858376e-11,1702.0784795344,4896.3936694501,5.4108759139915e-11,2006.6970447887,2.6336325567711,2.2879463081049e-11,832.18075466873,5291.5610732208,-1.0922908411093e-11,2172.3473294912,5730.1910966121,-11.208736820204,4.1690192964516e-12,5296.6216772547,4.6613146502394e-11,2186.5530973455
1.7529999999999,4142.5392817619,-8.7789914227088e-12,1693.0399284577,4481.8019149639,-0.0011461586577184,1.7570717450455e-11,4148.6881420399,5.0925309108552e-11,1695.5633592037,4902.6976274936,5.3871964181273e-11,2000.3025529619,2.6371316399961,2.2861175626165e-11,825.89746085034,5294.9755746281,-1.1221058804356e-11,2164.0362244463,5730.1871671257,-11.211221843649,1.0228381509825e-11,5300.0451966078,5.284524467325e-11,2178.2312952722
1.7539999999999,4145.1842561709,-8.6129714471639e-12,1686.5269388133,4481.8006741065,-0.0011533144588043,1.2144690635096e-11,4151.3452577983,4.5418094632432e-11,1689.0440589218,4908.9814638525,5.4478256975021e-11,1993.8883225631,2.6406307142669,2.2718547529332e-11,819.63428872078,5298.3770222754,-1.1008881306562e-11,2155.719752535,5730.1832338793,-11.213668129939,3.2952087239413e-12,5303.4556522457,4.5806049057961e-11,2169.9040957723
1.7549999999999,4147.8189906983,-8.1409774754793e-12,1680.0098171948,4481.7994332573,-0.0011604877699369,1.1482034940891e-11,4153.9921290367,4.4628003549596e-11,1682.5205947771,4915.2451166216,5.4542186739281e-11,1987.4544169094,2.6441297795749,2.275498756435e-11,813.3913001851,5301.7654077269,-1.0405627748344e-11,2147.3979342602,5730.1792969346,-11.216075673163,2.4466479189855e-12,5306.8530356598,4.4796267389957e-11,2161.5715193538
1.7559999999999,4150.4434788893,-8.5027228313717e-12,1673.4885797018,4481.7981924153,-0.0011676785507007,1.2161149691436e-11,4156.6287492291,4.5280825963778e-11,1675.9929828677,4921.488524095,5.4297091128808e-11,1981.0008995121,2.6476288359245,2.2664434565223e-11,807.16855694916,5305.1407225796,-1.0868035638101e-11,2139.0707901381,5730.175356351,-11.218444467294,3.3167236318521e-12,5310.2373383719,4.5630835915356e-11,2153.2335865371
1.7569999999999,4153.0577143147,-9.0837684596501e-12,1666.9632424438,4481.796951582,-0.0011748867347023,8.7384587413308e-12,4159.2551118775,4.2202572166083e-11,1669.4612393025,4927.7116247668,5.4121358436521e-11,1974.5278340761,2.6511278833054,2.2332362521749e-11,800.96612051891,5308.5029584623,-1.1610767902681e-11,2130.7383406978,5730.1714121915,-11.220774506374,-1.0608397840728e-12,5313.6085519392,4.169627837447e-11,2144.8903178571
1.7579999999999,4155.6616905703,-9.0806875907568e-12,1660.4338215402,4481.7957107567,-0.0011821123959521,1.0769779165698e-11,4161.8712105068,4.4231433619923e-11,1662.9253802004,4933.9143573313,5.3956904916275e-11,1968.035284499,2.6546269217165,2.2283948557938e-11,794.78405219989,5311.852107036,-1.1606889060989e-11,2122.400606482,5730.1674645159,-11.223065784715,1.5359961566541e-12,5316.9666679482,4.4289735073866e-11,2136.5417338614
1.7589999999999,4158.2554012774,-8.6723267456179e-12,1653.9003331207,4481.7944699393,-0.0011893554791413,1.1472839171744e-11,4164.4770386681,4.4707628224505e-11,1656.38542169,4940.0966606841,5.4110275288233e-11,1961.5233148709,2.6581259511559,2.245411408891e-11,788.62241309656,5315.1881599944,-1.1084959339325e-11,2114.0576080461,5730.1635133851,-11.225318296563,2.4363271816652e-12,5320.3116780186,4.489853627776e-11,2128.1878551107
1.7599999999999,4160.8388400826,-8.6310750213592e-12,1647.3627933247,4481.7932291297,-0.0011966161068244,1.8247757471723e-11,4167.0725899376,5.1558536953711e-11,1649.8413799106,4946.2584739223,5.4300824253728e-11,1954.9919894735,2.6616249716199,2.2112829362736e-11,782.48126411173,5318.5111090629,-1.1032307012382e-11,2105.7093659589,5730.1595588597,-11.227532036483,1.1095611408829e-11,5323.6435738022,5.3655718756929e-11,2119.8287021792
1.7609999999999,4163.4120006579,-9.3798580014237e-12,1640.8212183017,4481.7919883287,-0.0012038940819252,1.8225330099264e-11,4169.6578579181,5.1796809029392e-11,1643.2932710115,4952.3997363453,5.3952989645389e-11,1948.4413727792,2.6651239831026,2.1988090601749e-11,776.36066594591,5321.8209459998,-1.1989451098593e-11,2097.3559008019,5730.155601002,-11.229706998732,1.1064862567856e-11,5326.9623469846,5.3960429007016e-11,2111.4642956545
1.7619999999999,4165.9748767008,-9.2065174928102e-12,1634.275624211,4481.7907475346,-0.0012111896146507,1.618486854954e-11,4172.2328362348,4.9796515869116e-11,1636.7411111513,4958.5203874555,5.3872012753531e-11,1941.8715294511,2.668622985603,2.200351229345e-11,770.26067909678,5325.1176625952,-1.1767947727392e-11,2088.9972331698,5730.1516398706,-11.231843178179,8.4595924015884e-12,5330.2679892802,5.1403711148756e-11,2103.0946561364
1.7629999999999,4168.5274619339,-8.2871418061181e-12,1627.7260272218,4481.7895067489,-0.0012185025917688,1.0822166079949e-11,4174.7975185419,4.3844555590311e-11,1630.1849164997,4964.6203669586,5.450328903478e-11,1935.2825243418,2.67212197912,2.2210071889267e-11,764.18136385855,5328.4012506719,-1.0592825228084e-11,2080.6333836701,5730.1476755283,-11.233940569378,1.5986083984343e-12,5333.5604924397,4.3795757818932e-11,2094.7198042389
1.7639999999999,4171.0697501057,-8.2923320987582e-12,1621.172443513,4481.7882659706,-0.0012258330549457,1.1466700852725e-11,4177.3518985164,4.4736843569926e-11,1623.6247032353,4970.6996147643,5.4205114355388e-11,1928.6744224932,2.675620963644,2.1912369054661e-11,758.12278032137,5331.671702085,-1.0599472688444e-11,2072.2643729231,5730.1437080349,-11.235999167175,2.4282026042655e-12,5336.8398482435,4.4936446057242e-11,2086.3397605881
1.7649999999999,4173.6017349896,-8.3708942555383e-12,1614.6148892734,4481.7870252005,-0.0012331810046931,1.3525681442916e-11,4179.8959698622,4.6594241485953e-11,1617.0604875475,4976.7580709872,5.4567928300941e-11,1922.0472891355,2.6791199391794,2.1820828564195e-11,752.08498837075,5334.9290087218,-1.0699933994385e-11,2063.890221562,5730.1397374523,-11.238018966463,5.0586982519585e-12,5340.1060485061,4.7310801977452e-11,2077.9545458239
1.7659999999999,4176.1234103848,-7.9334178115786e-12,1608.0533807014,4481.7857844379,-0.0012405463740492,1.2189186292255e-11,4182.4297263077,4.5045680727163e-11,1610.4922856349,4982.7956759469,5.4635514862289e-11,1915.4011896866,2.6826189057148,2.191140541577e-11,746.06804768694,5338.1731625022,-1.014081874029e-11,2055.5109502327,5730.1357638406,-11.239999962138,3.3516670341904e-12,5343.3590850729,4.5331458205233e-11,2069.5641805981
1.7669999999999,4178.634770116,-8.2638063059193e-12,1601.4879340051,4481.7845436825,-0.0012479292129797,1.2849108929625e-11,4184.9531616069,4.5872702338079e-11,1603.920113706,4988.812370169,5.4729479628812e-11,1908.7361897516,2.6861178632548,2.1785988811585e-11,740.07201774439,5341.4041553786,-1.056318921222e-11,2047.1265795938,5730.1317872604,-11.241942149346,4.1971981445954e-12,5346.5989498221,4.6388733999925e-11,2061.1686855759
1.7679999999999,4181.135808033,-8.3189080624102e-12,1594.9185654024,4481.7833029362,-0.001255329521598,1.2178658255479e-11,4187.4662695411,4.5203367958491e-11,1597.34398798,4994.8080943853,5.4579897892926e-11,1902.0523551223,2.6896168117899,2.1630702871228e-11,734.0969578111,5344.6219793355,-1.0633674496496e-11,2038.7371303165,5730.1278077751,-11.243845523267,3.3333440174754e-12,5349.8256346668,4.5533263791364e-11,2052.7680814362
1.7689999999999,4183.6265180116,-8.0693368653684e-12,1588.3452911206,4481.7820621964,-0.0012627473740281,1.5577992021343e-11,4189.9690439133,4.8450999289018e-11,1590.7639246843,5000.7827895349,5.4884874423067e-11,1895.3497517761,2.6931157513214,2.1682808760276e-11,728.14292694811,5347.8266263903,-1.0314679665946e-11,2030.3426230848,5730.1238254425,-11.245710079264,7.6847356603182e-12,5353.0391315476,4.9684762380708e-11,2044.3623888686
1.7699999999999,4186.1068939528,-8.4966964020161e-12,1581.7681273966,4481.7808214644,-0.0012701826826742,1.079980375962e-11,4192.4614785552,4.3918675987631e-11,1584.1799400571,5006.7363967643,5.4624913967127e-11,1888.6284458757,2.6966146818405,2.1477325126695e-11,722.20998400883,5351.0180885925,-1.0860985721894e-11,2021.943078595,5730.119840325,-11.247535812596,1.5802081865246e-12,5356.2394324418,4.3891298581733e-11,2035.9516285772
1.7709999999999,4188.5769297831,-8.1588069633654e-12,1575.187090477,4481.7795807407,-0.001277635455267,1.5561369033634e-11,4194.9435673238,4.8645473933739e-11,1577.5920503462,5012.6688574281,5.4621210332506e-11,1881.8885037684,2.7001136033495,2.1381055346353e-11,716.29818763855,5354.1963580244,-1.0429192232042e-11,2013.538517556,5730.1158524845,-11.249322718738,7.6628980938409e-12,5359.4265293585,4.9933628412657e-11,2027.5358212782
1.7719999999999,4191.0366194547,-8.6737908522316e-12,1568.6021966177,4481.7783400238,-0.0012851057103944,1.0794461678676e-11,4197.4153040993,4.4033974383462e-11,1571.0002718085,5018.5801130898,5.4645246660989e-11,1875.1299919853,2.7036125158429,2.1380635543272e-11,710.4075962738,5357.3614268007,-1.108745734113e-11,2005.1289606892,5730.1118619801,-11.251070793272,1.5695587191056e-12,5362.600414337,4.4038908804389e-11,2019.1149876998
1.7729999999999,4193.4859569454,-8.2804180179252e-12,1562.0134620841,4481.7770993145,-0.0012925934295822,1.351972960667e-11,4199.8766827898,4.6615688739648e-11,1564.4046207108,5024.4701055221,5.4859958589781e-11,1868.3529772408,2.7071114193171,2.1389004283001e-11,704.53826814178,5360.5132870687,-1.0584665088853e-11,1996.7144287283,5730.1078688737,-11.25278003183,5.0568837312026e-12,5365.7610794515,4.7339228891052e-11,2010.6891485835
1.7739999999999,4195.9249362582,-8.8621887606166e-12,1555.420903151,4481.7758586127,-0.0013000986813267,5.3769931215863e-12,4202.327697328,3.8527592574611e-11,1557.8051133296,5030.3387767077,5.475831420243e-11,1861.5575264317,2.7106103137682,2.1285265217053e-11,698.69026125981,5363.651931008,-1.1328375737474e-11,1988.2949424195,5730.1038732262,-11.254450430253,-5.355989957101e-12,5368.9085168081,3.700030646453e-11,2002.2583246833
1.7749999999999,4198.3535514222,-8.5464482713071e-12,1548.8245361025,4481.7746179193,-0.0013076214105467,1.6924520812589e-11,4204.7683416734,5.0005187490765e-11,1551.2017659509,5036.1860688396,5.4702556720465e-11,1854.7437066371,2.7141091991945,2.1009629366103e-11,692.86363343474,5366.7773508313,-1.0924802729129e-11,1979.870522521,5730.0998751,-11.25608198432,9.4005697323651e-12,5372.0427185467,5.1672313129691e-11,1993.8225367655
1.7759999999999,4200.7717964917,-8.4333234839917e-12,1542.2243772321,4481.7733772325,-0.0013151616091136,9.4543418233117e-12,4207.1986098083,4.2459368486403e-11,1544.5945948696,5042.0119243221,5.4901191232082e-11,1847.9115851168,2.7176080755905,2.1052678263883e-11,687.05844226238,5369.8895387835,-1.0780210057959e-11,1971.4411898035,5730.0958745536,-11.257674689961,-1.4031397571612e-13,5375.1636768361,4.2026533295103e-11,1985.3818056082
1.7769999999999,4203.1796655469,-8.7468643439337e-12,1535.6204428427,4481.7721365534,-0.0013227193441594,1.4861709085601e-11,4209.6184957432,4.80539974132e-11,1537.9836163907,5047.8162857708,5.4950110434104e-11,1841.0612293118,2.7211069429554,2.0870367500175e-11,681.27474512694,5372.9884871421,-1.1181035264318e-11,1963.0069650498,5730.0918716496,-11.259228543304,6.7728305602754e-12,5378.2713838815,4.917836103624e-11,1976.9361520027
1.7779999999999,4205.5771526934,-7.8456824370576e-12,1529.0127492462,4481.7708958825,-0.0013302945324085,1.0828013832787e-11,4212.027993514,4.3729200815967e-11,1531.3688468284,5053.5990960137,5.5350493285977e-11,1834.1927068426,2.7246058012828,2.0953624252362e-11,675.51259920046,5376.0741882176,-1.0029095609543e-11,1954.5678690549,5730.0878664496,-11.260743540377,1.6143414729997e-12,5381.3658319201,4.3649999413586e-11,1968.4855967524
1.7789999999999,4207.9642520625,-7.9365125582598e-12,1522.4013127637,4481.7696552173,-0.001337887188015,1.694388466339e-11,4214.4270971792,4.9768461053701e-11,1524.7503025055,5059.3602980915,5.5623622027823e-11,1827.306085509,2.7281046505722,2.0931930667933e-11,669.77206144224,5379.1466343528,-1.0145190243449e-11,1946.1239226258,5730.0838590115,-11.262219677428,9.4299784994534e-12,5384.4470132182,5.1370279557927e-11,1960.0301606719
1.7799999999999,4210.3409578113,-7.9105541561653e-12,1515.7861497258,4481.7684145607,-0.0013454973980629,1.3568457121749e-11,4216.8158008283,4.622395174958e-11,1518.1279997557,5065.0998352581,5.5806432391892e-11,1820.4014332895,2.7316034908166,2.0824466717001e-11,664.05318859827,5382.2058179234,-1.011207784174e-11,1937.6751465815,5730.0798494002,-11.263656950899,5.1131937225946e-12,5387.514920081,4.6839355311024e-11,1951.5698645902
1.7809999999999,4212.7072641224,-7.6835621198867e-12,1509.1672764719,4481.7671739114,-0.0013531251202608,1.6960103460528e-11,4219.1940985719,4.9647316639756e-11,1511.5019549206,5070.8176509812,5.559469030969e-11,1813.4788183406,2.7351023220205,2.0699979490918e-11,658.35603720072,5385.2517313376,-9.8219141153599e-12,1929.2215617531,5730.075837675,-11.265055357157,9.4469649117301e-12,5390.5695448414,5.121569661426e-11,1943.1047293464
1.7819999999999,4215.0631652041,-7.6806477844471e-12,1502.5447093505,4481.7659332694,-0.0013607702573495,1.085910701637e-11,4221.5619845482,4.3396901523718e-11,1504.8721843513,5076.5136889432,5.5834737874849e-11,1806.5383089959,2.7386011441708,2.0733264063932e-11,652.68066356731,5388.2843670366,-9.8182850738482e-12,1920.7631889836,5730.0718238969,-11.266414892599,1.6547587952664e-12,5393.6108798668,4.322566003051e-11,1934.6347757925
1.7829999999999,4217.4086552906,-8.4763515650899e-12,1495.9184647193,4481.7646926342,-0.0013684329734929,8.7806255322231e-12,4223.9194529203,4.1745100431978e-11,1498.2387044083,5082.1878930413,5.5489092487537e-11,1799.5799737654,2.7420999572702,2.0558119876585e-11,647.0271238008,5391.3037174941,-1.0835492225691e-11,1912.3000491279,5730.0678081265,-11.267735554047,-1.0003950792759e-12,5396.6389175565,4.1114199718362e-11,1926.1600247923
1.7839999999999,4219.7437286416,-8.4922902043871e-12,1489.2885589449,4481.7634520068,-0.001376113102026,1.3528919304284e-11,4226.2664978784,4.653724714615e-11,1491.6015314614,5087.8402073881,5.5555882810809e-11,1792.6038813354,2.7455987613136,2.035598295827e-11,641.39547378843,5394.3097752167,-1.0855864818193e-11,1903.8321630527,5730.0637904261,-11.269017338002,5.06481748902e-12,5399.6536503446,4.7240360061263e-11,1917.6804972222
1.7849999999999,4222.0683795426,-8.0687817538561e-12,1482.6550084029,4481.7622113863,-0.0013838108002346,1.0840524658495e-11,4228.6031136366,4.3607455320338e-11,1484.960681889,5093.4705763124,5.5659950606857e-11,1785.6101005672,2.7490975562971,2.0355669407002e-11,635.78576920137,5397.3025327436,-1.0314547826962e-11,1895.3595516364,5730.0597708556,-11.270260241471,1.6275470554605e-12,5402.6550706953,4.3495163200291e-11,1909.1962139696
1.7859999999999,4224.3826023049,-8.2862952610618e-12,1476.0178294777,4481.7609707737,-0.0013915260250315,1.2858337658517e-11,4230.9292944367,4.5798716381829e-11,1478.3161720793,5099.0789443597,5.5687444239227e-11,1778.5987004964,2.7525963422215,2.0194817606373e-11,630.19806549414,5400.281982647,-1.0592651755736e-11,1886.8822357692,5730.0557494776,-11.271464261304,4.2086872181768e-12,5405.6431711084,4.6296508293686e-11,1900.7071959349
1.7869999999999,4226.6863912654,-8.0280296299584e-12,1469.3770385627,4481.7597301679,-0.0013992586788163,8.8040200130202e-12,4233.2450345441,4.1574697677571e-11,1471.6680184285,5104.6652562926,5.5746128199696e-11,1771.569750333,2.7560951190795,2.0181297171601e-11,624.63241790411,5403.2481175317,-1.0262547756046e-11,1878.4002363531,5730.0517263515,-11.272629394373,-9.7462489467848e-13,5408.6179441134,4.0896779886224e-11,1892.213464029
1.7879999999999,4228.979740787,-7.4723005560884e-12,1462.7326520601,4481.7584895684,-0.0014070088943754,1.2899976226111e-11,4235.5503282507,4.5423937181099e-11,1465.0162373423,5110.2294570913,5.6256740585403e-11,1764.5233194596,2.759593886869,2.0172357274167e-11,619.08888145094,5406.2009300356,-9.5521646148455e-12,1869.9135743015,5730.0477015379,-11.273755637942,4.2582881665254e-12,5411.5793822739,4.5817654358016e-11,1883.7150391753
1.7889999999999,4231.2626452581,-7.6770603762988e-12,1456.084686381,4481.7572489778,-0.0014147765504617,1.6961011588268e-11,4237.8451698771,4.9557370360165e-11,1458.3608452362,5115.7714919545,5.6115658994549e-11,1757.4594774317,2.763092645585,2.006280992034e-11,613.567510936,5409.1404128292,-9.8139621429461e-12,1861.4222705396,5730.0436751013,-11.274842989053,9.4527372040965e-12,5414.5274781899,5.1101872733383e-11,1875.2119423098
1.7899999999999,4233.5350990932,-8.2100784504213e-12,1449.4331579451,4481.7560083918,-0.0014225617690613,1.0148733416149e-11,4240.1295537628,4.3004624167287e-11,1451.7018585324,5121.2913062996,5.5621975775244e-11,1750.3782939763,2.7665913952261,2.0081388808768e-11,608.06836094188,5412.066558616,-1.0495382340991e-11,1852.9263460038,5730.0396470972,-11.27589144514,7.473301491534e-13,5417.4622244856,4.2725084754835e-11,1866.7041943777
1.7909999999999,4235.7970967324,-7.9756409809839e-12,1442.7780831809,4481.7547678154,-0.0014303644305187,1.2202347639267e-11,4242.4034742824,4.4915376973265e-11,1445.039293665,5126.7888457631,5.587499733728e-11,1743.2798389918,2.7700901357874,1.9956668262378e-11,602.59148583182,5414.9793601322,-1.0195747024433e-11,1844.4258216423,5730.0356175932,-11.276901003443,3.3705390908856e-12,5420.3836138298,4.5167886791875e-11,1858.1918163394
1.7919999999999,4238.0486326417,-8.3650447679773e-12,1436.1194785255,4481.7535272442,-0.001438184693825,1.3540765730902e-11,4244.6669258271,4.6405425509211e-11,1438.3731670739,5132.2640562018,5.5727211040191e-11,1736.1641825468,2.7735888672666,1.9775089985657e-11,597.1369397492,5417.8788101473,-1.0693543273099e-11,1835.9207184146,5730.0315866449,-11.277871661637,5.0819539548774e-12,5423.2916389126,4.7072871642295e-11,1849.6748291632
1.7929999999999,4240.2897013129,-7.5070574756531e-12,1429.4573604247,4481.7522866815,-0.0014460223911215,1.4929962648125e-11,4246.9199028215,4.7451297231771e-11,1431.7034952101,5137.7168836925,5.6203914786113e-11,1729.0313948797,2.7770875896567,1.9650734164878e-11,591.70477661698,5420.7649014633,-9.5967331303903e-12,1827.4110572915,5730.0275543174,-11.278803417089,6.8569394953699e-12,5426.1862924663,4.8410038998303e-11,1841.1532538318
1.7939999999999,4242.5202972637,-7.7637826723098e-12,1422.7917453329,4481.751046125,-0.0014538775657229,1.1524680515462e-11,4249.1623997104,4.4214906042006e-11,1425.0302945317,5143.1472745334,5.5773448359719e-11,1721.8815463979,2.7805863029643,1.950476499063e-11,586.29505013718,5423.6376269153,-9.9249636287269e-12,1818.8968592553,5730.0235206691,-11.279696267521,2.5022449390288e-12,5429.0675672497,4.4272756467845e-11,1832.6271113373
1.7949999999999,4244.7404150378,-8.2566939396678e-12,1416.1226497131,4481.749805576,-0.0014617502895362,-3.9883894797921e-14,4251.3944109681,3.2917239246866e-11,1418.3535815065,5148.5551752437,5.5496721801385e-11,1714.7147076772,2.7840850071764,1.9358837883426e-11,580.90781379034,5426.4969793715,-1.055511927861e-11,1810.3781452992,5730.0194857626,-11.280550210795,-1.2278379701858e-11,5431.9354560582,2.9829840854367e-11,1824.0964226847
1.7959999999999,4246.9500492044,-8.0344272901378e-12,1409.4500900366,4481.7485650338,-0.0014696405855261,5.4003719898721e-12,4253.615931093,3.8278332760433e-11,1411.6733726107,5153.9405325648,5.5713442539962e-11,1707.5309494611,2.7875837022932,1.9176985520397e-11,575.54312083501,5429.3429517328,-1.0271006267715e-11,1801.854936428,5730.0154496585,-11.281365244802,-5.3282664738696e-12,5434.7899517188,3.6683614479394e-11,1815.5612088897
1.7969999999999,4249.149194359,-8.1901152526598e-12,1402.7740827835,4481.7473244989,-0.0014775483260223,8.783721146266e-12,4255.8269546101,4.1769834119298e-11,1404.9896843288,5159.3032934608,5.5434937890064e-11,1700.3303426598,2.7910823883101,1.8907182677136e-11,570.20102430721,5432.1755369333,-1.0470090072712e-11,1793.3272536575,5730.0114124182,-11.28214136734,-1.004446525954e-12,5437.6310470919,4.1147311252709e-11,1807.0214909792
1.7979999999999,4251.3378451227,-8.4631468499907e-12,1396.0946444421,4481.7460839701,-0.0014854736103302,1.6243774554614e-11,4258.0274760691,4.9310217367649e-11,1398.3025331541,5164.6434051186,5.5714139898799e-11,1693.11295835,2.7945810652255,1.8924642668922e-11,564.88157701991,5434.99472794,-1.0819178886123e-11,1784.7951180145,5730.0073741015,-11.282878576589,8.5302580971058e-12,5440.4587350695,5.0787219915693e-11,1798.4772899914
1.7989999999999,4253.5159961428,-8.5144183370467e-12,1389.4117915091,4481.7448434482,-0.0014934163392581,2.1665245986124e-11,4260.2174900474,5.474040318254e-11,1391.6119355885,5169.9608149487,5.5398997889089e-11,1685.8788677739,2.7980797330346,1.8637231948698e-11,559.58483156252,5437.8005177529,-1.0884800005773e-11,1776.2585505371,5730.0033347707,-11.283576870577,1.5463782164493e-11,5443.2730085789,5.7729462703271e-11,1789.928626976
1.7999999999999,4255.6836420923,-8.8045543078508e-12,1382.7255404895,4481.7436029333,-0.0015013766908964,1.2828402402854e-11,4262.3969911475,4.6050294653932e-11,1384.9179081425,5175.2554705859,5.511071113351e-11,1678.6281423384,2.8015783917356,1.8554372014506e-11,554.31084030036,5440.5928994053,-1.1255732457194e-11,1767.7175722742,5729.9992944868,-11.284236247776,4.1683089271882e-12,5446.0738605794,4.6619893709354e-11,1781.375522994
1.8009999999999,4257.8407776701,-9.1894686304883e-12,1376.035907897,4481.7423624254,-0.0015093544467391,1.687911182352e-11,4264.565973998,5.0214544328187e-11,1378.2204673348,5180.5273198892,5.5372690807576e-11,1671.3608536146,2.8050770413245,1.8542672172023e-11,549.05965537412,5443.3718659632,-1.1747852690647e-11,1759.1722042857,5729.9952533111,-11.284856706254,9.3541068987846e-12,5448.8612840636,5.1943759189765e-11,1772.8179991169
1.8019999999999,4259.9873976014,-8.895884029414e-12,1369.342910253,4481.7411219246,-0.0015173497126852,1.4203558468262e-11,4266.7244332533,4.7296954547305e-11,1371.5196296927,5185.7763109432,5.5477763008516e-11,1664.0770733372,2.8085756817974,1.8534551497751e-11,543.83132869941,5446.137410526,-1.1372604247217e-11,1750.6224676425,5729.9912113048,-11.285438244585,5.9213536851566e-12,5451.635272057,4.8213926774621e-11,1764.2560764279
1.8029999999999,4262.1234966371,-9.1990859374391e-12,1362.6465640876,4481.7398814302,-0.001525362597647,1.552282954953e-11,4268.8723635933,4.8915351803791e-11,1364.8154117517,5191.0023920578,5.519672913179e-11,1656.7768734033,2.8120743131514,1.8284316768979e-11,538.62591196617,5448.8895262259,-1.1760238616265e-11,1742.0683834261,5729.9871685285,-11.285980861443,7.613827970876e-12,5454.3958176175,5.0283092793701e-11,1755.6897760207
1.8039999999999,4264.2490695541,-9.1283230974071e-12,1355.9468859387,4481.738640942,-0.0015333929140979,1.2822757612663e-11,4271.0097597241,4.6089587008025e-11,1358.1078300555,5196.2055117692,5.553599073671e-11,1649.4603258723,2.8155729353839,1.8365477107846e-11,533.44345663823,5451.6282062284,-1.1669831767591e-11,1733.5099727292,5729.9831250427,-11.286484555221,4.1623449478778e-12,5457.1429138364,4.6670620493239e-11,1747.1191189999
1.8049999999999,4266.3641111553,-8.6290349865514e-12,1349.2438923527,4481.7374004609,-0.0015414407444041,9.4505852796245e-12,4273.1366163789,4.2468596347933e-11,1351.3969011566,5201.3856188401,5.5740519838698e-11,1642.1275029648,2.8190715484893,1.8250791503083e-11,528.28401395276,5454.3534437321,-1.1031613122992e-11,1724.9472566548,5729.9790809099,-11.286949324753,-1.4515732366105e-13,5459.8765538396,4.2041464060061e-11,1738.5441264817
1.8059999999999,4268.4686162697,-8.623650404882e-12,1342.5375998838,4481.7361599867,-0.0015495060882813,1.2831082550624e-11,4275.2529283159,4.5984431540358e-11,1344.6826416155,5206.5426622604,5.5945789667611e-11,1634.7784770619,2.8225701524677,1.8098556073959e-11,523.14763491976,5457.0652319687,-1.1024743618027e-11,1716.380256317,5729.9750361909,-11.287375168862,4.1736700900907e-12,5462.596730785,4.6536435295563e-11,1729.9648195926
1.8069999999999,4270.5625797523,-9.0795773677321e-12,1335.8280250946,4481.7349195191,-0.0015575889624415,8.0809647168278e-12,4277.3586903193,4.1304711387302e-11,1337.9650680007,5211.6765912479,5.5639876386793e-11,1627.4133207047,2.8260687473136,1.7999772245619e-11,518.03437032158,5459.7635642032,-1.1607617644849e-11,1707.8089928401,5729.9709909467,-11.287762086491,-1.902036687873e-12,5465.3034378634,4.0553688011868e-11,1721.3812194699
1.8079999999999,4272.6459964841,-8.8973411971338e-12,1329.1151845554,4481.7336790585,-0.0015656893992286,4.6872662001762e-12,4279.4538971999,3.7909459425778e-11,1331.2441968892,5216.7873552482,5.5559664507987e-11,1620.0321065933,2.8295673330245,1.7899777146613e-11,512.94427071243,5462.4484337336,-1.1374720609858e-11,1699.2334873594,5729.9669452388,-11.288110076698,-6.2394239080943e-12,5467.9966682996,3.6213055124024e-11,1712.793347262
1.8089999999999,4274.7188613721,-8.734638012875e-12,1322.3990948446,4481.7324386038,-0.0015738072428348,1.9638507833819e-11,4281.5385437932,5.258652194251e-11,1324.5200448655,5221.8749039358,5.5964831727207e-11,1612.6349075865,2.8330659095941,1.7920984141107e-11,507.87738641784,5465.1198338911,-1.1166734203982e-11,1690.6537610206,5729.9628991271,-11.288419138393,1.2878215854828e-11,5470.6764153498,5.4977459217065e-11,1704.2012241272
1.8099999999999,4276.7811693494,-8.6965573631304e-12,1315.6797725486,4481.7311981565,-0.0015819426309349,1.2857553563506e-11,4283.612624963,4.5807308467205e-11,1317.7926285233,5226.9391872143,5.6005911713841e-11,1605.2217967006,2.8365644770233,1.7687651690523e-11,502.83376753418,5467.7777580403,-1.1118141129973e-11,1682.0698349797,5729.9588526746,-11.288689270965,4.2034917213662e-12,5473.3426723067,4.6310500573243e-11,1695.6048712356
1.8109999999999,4278.8329153752,-7.7081882543517e-12,1308.9572342616,4481.7299577157,-0.0015900955489201,1.153456063302e-11,4285.6761355972,4.4123113149275e-11,1311.0619644633,5231.9801552168,5.612422332435e-11,1597.7928471089,2.8400630353068,1.7697263793304e-11,497.81346392819,5470.4221995789,-9.8545407944961e-12,1673.4817304033,5729.9548059413,-11.288920473699,2.513622122946e-12,5475.995432493,4.4157399091416e-11,1687.0043097669
1.8119999999999,4280.8740944348,-9.1940829949344e-12,1302.2314965858,4481.7287172804,-0.0015982659777478,2.0966208803819e-11,4287.7290706096,5.4243776137497e-11,1304.3280692943,5236.9977583068,5.5588150402186e-11,1590.3481321411,2.8435615844414,1.7490214571786e-11,492.81652523645,5473.0531519379,-1.1754285045296e-11,1664.8894684684,5729.9507589871,-11.289112745968,1.4574018207536e-11,5478.634689265,5.70967179786e-11,1678.3995609115
1.8129999999999,4282.9047015396,-8.3537551875956e-12,1295.5025761311,4481.7274768528,-0.0016064539657918,1.6926050838695e-11,4289.7714249429,4.9825041661955e-11,1297.590959634,5241.9919470783,5.6305149778724e-11,1582.8877252824,2.8470601244251,1.7468039167912e-11,487.84300086494,5475.6706085814,-1.0679949979941e-11,1656.2930703623,5729.946711876,-11.289266087335,9.4107560286161e-12,5481.2604360157,5.1447528529036e-11,1669.7906458712
1.8139999999999,4284.9247317269,-8.3007489770637e-12,1288.7704895153,4481.7262364311,-0.0016146594011843,1.624976108533e-11,4291.8031935626,4.9139742622217e-11,1290.8506521069,5246.9626723563,5.6361951564221e-11,1575.4117001727,2.8505586552503,1.7512768579059e-11,482.89293998848,5478.2745630071,-1.0612261069909e-11,1647.6925572826,5729.9426646671,-11.289380497249,8.5456424922525e-12,5483.872666167,5.0571507051456e-11,1661.1775858568
1.8149999999999,4286.9341800605,-8.0015022385638e-12,1282.0352533637,4481.7249960154,-0.0016228823553206,1.2869026157214e-11,4293.8243714615,4.5679632819373e-11,1284.1071633458,5251.9098851976,5.6598694481158e-11,1567.9201306063,2.8540571769181,1.7384718664637e-11,477.96639155031,5480.8650087455,-1.0229692093411e-11,1639.0879504369,5729.9386174214,-11.289455975488,4.2194225544079e-12,5486.4713731759,4.6147862441115e-11,1652.5604020903
1.8159999999999,4288.9330416301,-8.399801687542e-12,1275.2968843095,4481.723755607,-0.0016311228279733,1.0156868401889e-11,4295.8349536602,4.2975675101919e-11,1277.3605099919,5256.833536891,5.6535271256153e-11,1560.4130905305,2.8575556894237,1.7284146336394e-11,473.06340426159,5483.441939361,-1.073899302817e-11,1630.4792710434,5729.9345702019,-11.289492521842,7.524285014493e-13,5489.0565505345,4.2690934988487e-11,1643.9391158044
1.8169999999999,4290.9213115514,-8.5802268068313e-12,1268.5553989935,4481.7225152034,-0.001639380880647,1.6245044372198e-11,4297.8349352016,4.9187836095865e-11,1270.6107086929,5261.7335789579,5.6383273050464e-11,1552.8906540456,2.8610541927658,1.7149101583236e-11,468.1840266009,5486.0053484509,-1.0969718189369e-11,1621.86654033,5729.9305230665,-11.289490136264,8.5394096308034e-12,5491.6281917636,5.0633405454525e-11,1635.3137482409
1.8179999999999,4292.8989849666,-8.8740334525106e-12,1261.8108140642,4481.7212748068,-0.0016476563758943,1.2157753970232e-11,4299.8243111593,4.529630750344e-11,1263.8577761057,5266.6099631527,5.5982236207841e-11,1545.3528954036,2.8645526869335,1.7273043672467e-11,463.32830681378,5488.5552296461,-1.134539684422e-11,1613.2497795348,5729.9264760793,-11.289448818562,3.3145899219766e-12,5494.1862904231,4.5658134391335e-11,1626.684320653
1.8189999999999,4294.8660570438,-7.9319120716015e-12,1255.0631461774,4481.7200344179,-0.0016559493456612,1.4924507810155e-11,4301.8030766317,4.7518775372901e-11,1257.1017288944,5271.4626414632,5.6626061478715e-11,1537.7998890076,2.8680511719349,1.7044837329755e-11,458.49629291224,5491.0915766105,-1.0140888129229e-11,1604.6290099061,5729.9224293023,-11.289368568851,6.8504125982916e-12,5496.7308401042,4.849973374299e-11,1618.050854304
1.8199999999999,4296.8225229774,-8.0697740156843e-12,1248.3124119968,4481.7187940346,-0.0016642599227907,2.1006509899613e-11,4303.7712267403,5.3895963213202e-11,1250.3425837301,5276.2915661116,5.6144602855746e-11,1530.2317094114,2.8715496477594,1.704100185615e-11,453.6880326743,5493.6143830418,-1.0317233178903e-11,1596.0042527019,5729.9183827939,-11.289249387467,1.4624201155611e-11,5499.2618344281,5.6653306178267e-11,1609.4133704663
1.8209999999999,4298.768377988,-7.5167788660124e-12,1241.5586281934,4481.717553658,-0.0016725879100932,1.8321151019907e-11,4305.7287566365,5.0804380667679e-11,1243.5803572924,5281.0966895541,5.6583047275405e-11,1522.6484313183,2.8750481144057,1.6954944392911e-11,448.90357364352,5496.1236426709,-9.610257034609e-12,1587.3755291902,5729.9143366169,-11.289091274425,1.1196443078232e-11,5501.7792670537,5.2700748279233e-11,1600.7718904232
1.8219999999999,4300.7036173224,-8.0274537017644e-12,1234.8018114456,4481.7163132868,-0.0016809334571803,4.0498646103337e-12,4307.6756614952,3.6892819528511e-11,1236.8150662678,5285.8779644822,5.625772243889e-11,1515.0501295806,2.8785465718679,1.674197499385e-11,444.14296312852,5498.6193492621,-1.0263200012073e-11,1578.742860649,5729.9102908307,-11.288894230277,-7.0543718436178e-12,5504.2831316702,3.4914363067351e-11,1592.1264354674
1.8229999999999,4302.6282362536,-8.0188425344296e-12,1228.0419784392,4481.7150729223,-0.001689296504594,1.1513572213684e-11,4309.61193652,4.4242604371747e-11,1230.046727351,5290.6353438224,5.6614719856629e-11,1507.436879199,2.8820450201446,1.6736464644729e-11,439.40624820252,5501.101496613,-1.0252257376386e-11,1570.1062683658,5729.9062454981,-11.288658255408,2.4942105672499e-12,5506.7734220029,4.431151105766e-11,1583.4770269025
1.8239999999999,4304.5422300806,-7.8288694971285e-12,1221.2791458675,4481.7138325636,-0.0016976770615997,1.5610370635022e-11,4311.5375769389,4.8156583755399e-11,1223.2753572439,5295.3687807376,5.663192310934e-11,1499.8087553215,2.8855434592335,1.6706779189246e-11,434.69347570286,5503.570078555,-1.000936139528e-11,1561.4657736382,5729.9022006793,-11.288383350381,7.7268833692523e-12,5509.2501318087,4.9315856086307e-11,1574.823686041
1.8249999999999,4306.4455941292,-7.9881032344353e-12,1214.5133304311,4481.7125922117,-0.0017060751188183,2.0342299025811e-11,4313.4525780076,5.2985805847061e-11,1216.5009726559,5300.0782286265,5.6495823644309e-11,1492.1658332429,2.8890418891289,1.6601820612694e-11,430.00469223057,5506.0250889525,-1.0212962420209e-11,1552.8213977732,5729.8981564366,-11.288069515837,1.3781016258707e-11,5511.7132548797,5.5490429091976e-11,1566.1664342062
1.8259999999999,4308.3383237508,-7.4970862851131e-12,1207.7445488378,4481.7113518655,-0.0017144906983049,1.2895015784331e-11,4315.3569350063,4.5430747705466e-11,1209.7235903037,5304.763641125,5.7220873872499e-11,1484.5081884041,2.8925403098323,1.6432670762317e-11,425.33994414988,5508.4665217037,-9.5852492609794e-12,1544.1731620876,5729.8941128297,-11.287716752548,4.2555342930073e-12,5514.162785039,4.5830959687077e-11,1557.5052927303
1.8269999999999,4310.2204143235,-7.7726020064617e-12,1200.9728178027,4481.710111526,-0.0017229237511742,1.5579325156334e-11,4317.2506432434,4.8373120613288e-11,1202.9432269117,5309.4249721059,5.6856928887239e-11,1476.8358963911,2.8960387213356,1.6353000550917e-11,420.69927758777,5510.8943707401,-9.937516087799e-12,1535.5210879078,5729.8900699212,-11.287325061297,7.6892762990166e-12,5516.5987161459,4.959310566377e-11,1548.840282956
1.8279999999999,4312.0918612516,-8.1129269968727e-12,1194.1981540481,4481.7088711921,-0.0017313743067575,1.9636395807987e-11,4319.1336980516,5.254081284628e-11,1196.1598992112,5314.06217568,5.6748078458568e-11,1469.1490329344,2.899537123635,1.6317023687068e-11,416.08273843353,5513.3086300268,-1.0372723513452e-11,1526.8651965697,5729.8860277708,-11.286894443058,1.2880704315654e-11,5519.0210420907,5.4921935922769e-11,1540.171426235
1.8289999999999,4313.9526599655,-8.995533484768e-12,1187.4205743033,4481.7076308636,-0.0017398424424186,1.6212828822526e-11,4321.0060947907,4.9383602242214e-11,1189.373623941,5318.6752061961,5.6338666371003e-11,1461.4476739086,2.9030355167289,1.6107038879748e-11,411.4903723383,5515.7092935625,-1.1501188890151e-11,1518.2055094187,5729.8819864395,-11.286424898963,8.5079833803126e-12,5521.4297567982,5.088534368175e-11,1531.4987439291
1.8299999999999,4315.8028059221,-7.9650730455683e-12,1180.6400953051,4481.7063905425,-0.0017483280475403,1.6243706033037e-11,4322.867828849,4.9174018156017e-11,1182.5844178479,5323.2640182416,5.6861865910252e-11,1453.7318953309,2.9065339006148,1.6019877698698e-11,406.92222471459,5518.0963553791,-1.0183735799085e-11,1509.5420478095,5729.8779459909,-11.285916430008,8.5379689429566e-12,5523.8248542293,5.0617513652762e-11,1522.8222574101
1.8309999999999,4317.6422946045,-8.2759910036145e-12,1173.856733797,4481.7051502268,-0.0017568311401988,1.6932830138039e-11,4324.718895637,4.9829177242722e-11,1175.7922976844,5327.828566643,5.6999566525051e-11,1446.001773361,2.9100322752883,1.5997697524334e-11,402.37834073588,5520.4698095423,-1.0581327480885e-11,1500.8748331065,5729.8739064837,-11.285369037437,9.4159584643205e-12,5526.2063283737,5.1455325243699e-11,1514.1419880583
1.8319999999999,4319.4711215222,-8.0364881416273e-12,1167.0705065297,4481.703909917,-0.001765351698225,1.2186088076127e-11,4326.5592905943,4.5036077298e-11,1168.9972802114,5332.3688064664,5.7092336067099e-11,1438.2573843001,2.9135306407465,1.5851724446958e-11,397.85876533616,5522.8296501514,-1.0275127970694e-11,1492.2038866831,5729.8698679796,-11.284782722546,3.3493485762648e-12,5528.5741732579,4.5327035527731e-11,1505.4579572641
1.8329999999999,4321.2892822108,-8.0578044237001e-12,1160.2814302609,4481.7026696129,-0.0017738898380344,2.6574376379984e-12,4328.389009186,3.5771711114074e-11,1162.1993821965,5336.8846930175,5.7122350252681e-11,1430.4988045901,2.9170289969882,1.5635146823068e-11,393.36354320944,5525.1758713391,-1.0302425579312e-11,1483.5292299221,5729.8658305398,-11.284157486903,-8.8291726360601e-12,5530.9283829409,3.3481756429865e-11,1496.7701864274
1.8339999999999,4323.0967722326,-7.2622047264659e-12,1153.4895217552,4481.7014293153,-0.0017824454553761,2.441533780706e-11,4330.2080469044,5.701093937216e-11,1155.3986204145,5341.3761818427,5.7557503901906e-11,1422.7261108129,2.9205273440057,1.5825822857057e-11,388.89271880939,5527.5084672718,-9.2852669997256e-12,1474.8508842157,5729.8617942261,-11.283493331892,1.8990821068487e-11,5533.2689515165,6.0638384070943e-11,1488.0786969574
1.8349999999999,4324.893587176,-7.3534164868327e-12,1146.6947977842,4481.700189023,-0.0017910184909624,6.6129567100059e-13,4332.0163992664,3.3414057111492e-11,1148.5950116471,5345.8432287292,5.7609743364662e-11,1414.9393796898,2.9240256817959,1.5822402416044e-11,384.44633634883,5529.8274321495,-9.4019028673564e-12,1466.168870965,5729.8577590983,-11.282790259045,-1.1383297082723e-11,5535.5958731099,3.0467382956811e-11,1479.3835102723
1.8359999999999,4326.6797226557,-7.2584993571212e-12,1139.8972751263,4481.698948737,-0.001799609085424,1.6958308889092e-11,4333.8140618172,4.9529492486544e-11,1141.7885726833,5350.2857897053,5.7687443363874e-11,1407.1386880804,2.9275240103616,1.5660532766415e-11,380.02443979935,5532.1327602057,-9.2805416129771e-12,1457.4832115804,5729.8537252189,-11.282048270253,9.4549056084414e-12,5537.9091418824,5.1072864687418e-11,1470.6846478002
1.8369999999999,4328.4551743131,-7.5861816828393e-12,1133.0969705666,4481.6977084574,-0.0018082171719698,1.286524619476e-11,4335.6010301278,4.570677517024e-11,1134.9793203189,5354.7038210411,5.7725442481615e-11,1399.3241129821,2.9310223296936,1.5550395606606e-11,375.62707289081,5534.4244457075,-9.6996369269853e-12,1448.7939274812,5729.8496926491,-11.281267367233,4.2187650942105e-12,5540.2087520279,4.6185212772276e-11,1461.9821309781
1.8379999999999,4330.2199378156,-7.9316275769514e-12,1126.2939008973,4481.696468183,-0.0018168427438354,1.0808933609274e-11,4337.3772997941,4.3834960834765e-11,1128.1672713564,5359.0972792488,5.7408414827487e-11,1391.4957315294,2.934520639788,1.5483135173272e-11,371.25427911099,5536.702482956,-1.0141359974014e-11,1440.1010400959,5729.8456614485,-11.280447551874,1.5917978740676e-12,5542.4946977725,4.379198913218e-11,1453.2759812518
1.8389999999999,4331.9740088572,-7.9036985289882e-12,1119.4880829171,4481.6952279142,-0.0018254858273963,9.4698901498269e-12,4339.1428664399,4.2346771922386e-11,1121.3524426055,5363.4661210831,5.7632539365859e-11,1383.6536209929,2.9380189406477,1.5363717676548e-11,366.90610170509,5538.9668662856,-1.0105652425985e-11,1431.4045708618,5729.8416316788,-11.279588826207,-1.2228846407725e-13,5544.7669733775,4.1889266361173e-11,1444.5662200767
1.8399999999999,4333.7173831584,-7.8436701578255e-12,1112.6795334315,4481.6939876516,-0.0018341463627962,7.4201539010388e-12,4340.8977257158,4.0411163131082e-11,1114.5348508828,5367.8103035418,5.7388723981311e-11,1375.7978587786,2.9415172322624,1.508765855307e-11,362.58258367534,5541.2175900644,-1.0028936014983e-11,1422.7045412252,5729.8376034019,-11.278691192246,-2.7408743677459e-12,5547.0255731389,3.9414448267661e-11,1435.8528689173
1.8409999999999,4335.4500564658,-7.4252895498894e-12,1105.8682692527,4481.6927473952,-0.0018428243674293,1.2192524767585e-11,4342.6418732981,4.4947335783863e-11,1107.7145130116,5372.129783866,5.763169629025e-11,1367.9285224273,2.9450155146298,1.5105687100475e-11,358.28376778057,5543.4546486943,-9.494002806143e-12,1414.0009726413,5729.8335766788,-11.277754652203,3.3619322603595e-12,5549.2704913849,4.5214676620831e-11,1427.1359492469
1.8419999999999,4337.1720245527,-7.9031919897332e-12,1099.0543071993,4481.691507143,-0.001851519959132,1.6927454229987e-11,4344.3753048878,4.9817143465969e-11,1100.8914458215,5376.4245195407,5.7400580816269e-11,1360.0456896138,2.9485137877532,1.5044591007013e-11,354.00969653578,5545.678036611,-1.0105083436684e-11,1405.293886574,5729.8295515685,-11.276779208508,9.4168934802741e-12,5551.5017224755,5.1441541130959e-11,1418.4154825475
1.8429999999999,4338.8832832187,-7.6588041464376e-12,1092.2376640968,4481.6902668981,-0.0018602329727742,1.1498070724703e-11,4346.0980162171,4.4392221669465e-11,1094.06566615,5380.694468295,5.7399520900225e-11,1352.1494381457,2.9520120516228,1.4891539824174e-11,349.76041221173,5547.8877482836,-9.7926042275098e-12,1396.583304496,5729.8255281357,-11.275764863337,2.4764955711132e-12,5553.7192608103,4.4505110534387e-11,1409.6914903109
1.8439999999999,4340.5838282899,-7.5356942907945e-12,1085.4183567771,4481.6890266583,-0.0018689634713951,1.4900586840783e-11,4347.8100030393,4.7720809075169e-11,1087.23719084,5384.9395881029,5.7677316048221e-11,1344.2398459635,2.9555103062364,1.4968329527243e-11,345.53595683453,5550.0837782153,-9.6352509304509e-12,1387.8692478886,5729.8215064388,-11.27471161924,6.8237212755284e-12,5555.9231008164,4.8761328308444e-11,1400.9639940366
1.8449999999999,4342.2736556188,-7.2444064636024e-12,1078.5964020785,4481.6877864234,-0.0018777114942736,1.8991390925149e-11,4349.5112611366,5.159137960592e-11,1080.4060367415,5389.1598371832,5.7639941430931e-11,1336.3169911388,2.9590085515923,1.4799739125188e-11,341.33637218519,5552.2661209426,-9.2628682502038e-12,1379.1517382419,5729.8174865387,-11.273619478841,1.2056080959943e-11,5558.113236957,5.3710588060474e-11,1392.2330152335
1.8459999999999,4343.9527610845,-7.7746906135268e-12,1071.7718168458,4481.6865461954,-0.0018864769156153,1.081322358043e-11,4351.2017863195,4.371365162209e-11,1073.5722207117,5393.3551740004,5.7594692903784e-11,1328.3809518745,2.962506787685,1.4691891800367e-11,337.16169979925,5554.4347710362,-9.940909206918e-12,1370.4307970545,5729.8134684992,-11.272488444649,1.6048525355861e-12,5560.2896637319,4.3637773949889e-11,1383.4985754197
1.8469999999999,4345.6211405925,-7.9376782924356e-12,1064.9446179303,4481.6853059724,-0.0018952598703095,1.4875962441041e-11,4352.8815744212,4.7948576532841e-11,1066.7357596135,5397.5255572647,5.719283727168e-11,1320.4318065032,2.9660050145123,1.449832745179e-11,333.01198096635,5556.5897231003,-1.0149353579791e-11,1361.7064458336,5729.8094523787,-11.271318519598,6.7930097311097e-12,5562.4523756696,4.9052953539352e-11,1374.7606961211
1.8479999999999,4347.2787900746,-8.1802897788918e-12,1058.1148221897,4481.6840657546,-0.0019040603455096,1.3518926429701e-11,4354.5506213036,4.6549192452006e-11,1059.8966703166,5401.6709459329,5.7160391003785e-11,1312.4696334871,2.9695032320733,1.467049875678e-11,328.88725672983,5558.730971773,-1.0459647037386e-11,1352.9787060948,5729.8054382389,-11.270109706532,5.0618328972796e-12,5564.6013673353,4.7263727653846e-11,1366.0193988727
1.8489999999999,4348.9257054893,-7.8227355149174e-12,1051.2824464879,4481.6828255433,-0.001912878268655,6.7484169294363e-12,4356.208922856,3.9737402604545e-11,1053.0549696976,5405.7912992082,5.7432494524057e-11,1304.4945114169,2.9730014403591,1.4240282130568e-11,324.7875678863,5560.8585117261,-1.0002505768103e-11,1344.2475993621,5729.8014261424,-11.268862008317,-3.6019711519009e-12,5566.7366333293,3.8553775623396e-11,1357.2747052183
1.8499999999999,4350.5618828217,-7.8349965404456e-12,1044.4475076951,4481.681585337,-0.00192171368505,1.01309325512e-11,4357.8564749915,4.3101694956194e-11,1046.2106746388,5409.8865765411,5.7319296878355e-11,1296.5065190107,2.9764996393735,1.4340293709447e-11,320.71295498529,5562.9723376653,-1.001819460722e-11,1335.513147168,5729.7974161483,-11.267575428059,7.2955877450376e-13,5568.8581682821,4.2855732851343e-11,1348.5266367096
1.8509999999999,4352.1873180832,-8.9147855764082e-12,1037.6100226879,4481.6803451359,-0.0019305665478555,1.4158401881459e-11,4359.4932736516,4.7574729745981e-11,1039.3638020293,5413.9567376296,5.6914162618882e-11,1288.5057351141,2.9799978291068,1.4249897269114e-11,316.66345832878,5565.07244433,-1.139895122737e-11,1326.7753710533,5729.7934083181,-11.266249968847,5.8811722852825e-12,5570.9659668603,4.8575458759526e-11,1339.7752149072
1.8519999999999,4353.8020073117,-8.3770976266884e-12,1030.7700083488,4481.6791049402,-0.0019394368275414,8.0739711791344e-12,4361.1193148041,4.1262690313182e-11,1032.5143687646,5418.0017424195,5.7528962496556e-11,1280.4922386984,2.983496009556,1.4052475329207e-11,312.63911797087,5567.1588264935,-1.0711459497159e-11,1318.034292567,5729.7894027132,-11.264885633888,-1.8985993333054e-12,5573.0600237645,4.0504429671406e-11,1331.0204613802
1.8529999999999,4355.4059465718,-8.4077814155314e-12,1023.9274815669,4481.677864751,-0.0019483246759648,1.4184171198695e-11,4362.7345944442,4.7334935450449e-11,1025.6623917466,5422.0215511049,5.7427432600954e-11,1272.4661088608,2.9869941807221,1.4060580824649e-11,308.63997371735,5569.2314789631,-1.0750761392231e-11,1309.2899332664,5729.7853993958,-11.263482426718,5.9138527408464e-12,5575.1403337297,4.8269098787412e-11,1322.2623977063
1.8539999999999,4356.9991319547,-8.004014118157e-12,1017.0824592371,4481.6766245663,-0.0019572299214019,9.4425561120159e-12,4364.3391085909,4.2544356058938e-11,1018.8078878829,5426.0161241289,5.7746318143925e-11,1264.4274248227,2.9904923425994,1.3851319397018e-11,304.6660651253,5571.2903965797,-1.023450768578e-11,1300.5423147169,5729.7813984248,-11.262040350549,-1.5232520106379e-13,5577.2068915217,4.2143503097003e-11,1313.5010454704
1.8549999999999,4358.5815595778,-7.614513186649e-12,1010.2349582604,4481.6753843872,-0.001966152604524,1.2186312722817e-11,4365.9328532926,4.4963607490067e-11,1011.950874088,5429.9854221832,5.8187923229758e-11,1256.3762659297,2.9939904951863,1.4024791310935e-11,300.71743150272,5573.3355742183,-9.7364893925089e-12,1291.791458492,5729.7773998625,-11.260559408968,3.3577975469545e-12,5579.2596919436,4.5237130881504e-11,1304.7364262671
1.8559999999999,4360.1532255855,-6.9635408550539e-12,1003.3849955439,4481.674144213,-0.0019750928331632,1.5597999454553e-11,4367.5158246225,4.8224147765341e-11,1005.0913672821,5433.9294062094,5.8043235148797e-11,1248.3127116502,2.9974886384778,1.3869694889118e-11,296.79411190814,5575.3670067875,-8.9041482520535e-12,1283.0373861734,5729.7734037691,-11.259039605739,7.7170761100809e-12,5581.2987298302,4.9406542225461e-11,1295.9685616982
1.8569999999999,4361.7141261484,-6.9710487382579e-12,996.53258800081,4481.6729040445,-0.0019840505100603,8.1456577594174e-12,4369.0880186818,4.062630700602e-11,998.22938439185,5437.8480373988,5.8107175321398e-11,1240.2368415752,3.0009867724719,1.3791784988365e-11,292.89614515021,5577.3846892302,-8.9137378034287e-12,1274.2801193506,5729.7694102067,-11.257480944463,-1.8087380551646e-12,5583.3240000521,3.9691183499613e-11,1287.1974733743
1.8579999999999,4363.264257464,-8.1418760622398e-12,989.67775255013,4481.671663881,-0.0019930257079466,1.8259293382838e-11,4370.649431597,5.1349827168146e-11,991.36494234988,5441.7412771929,5.7650958659727e-11,1232.1487354168,3.0044848971609,1.3260621333638e-11,289.02356978736,5579.3886165228,-1.0410922124393e-11,1265.5196796212,5729.7654192354,-11.255883429051,1.1120969596601e-11,5585.335497512,5.340369379353e-11,1278.4231829136
1.8589999999999,4364.8036157561,-7.9717482615038e-12,982.82050611683,4481.6704237237,-0.0020020182838039,8.7599164033669e-12,4372.2000595229,4.1893571077478e-11,984.49805809497,5445.6090872838,5.759569383923e-11,1224.0484730081,3.007983012546,1.3341334547529e-11,285.17642412738,5581.3787836759,-1.0193401678293e-11,1256.7560885907,5729.7614309178,-11.254247063238,-1.0255650495505e-12,5587.333217149,4.1311862784832e-11,1269.645711943
1.8599999999999,4366.3321972753,-7.6562020612236e-12,975.96086563177,4481.6691835706,-0.0020110283041959,1.2172662183785e-11,4373.7398986381,4.5134223615462e-11,977.62874857146,5449.4514296147,5.7778568388067e-11,1215.9361343021,3.0114811186229,1.3386510649971e-11,281.35474622706,5583.3551857339,-9.7899327533568e-12,1247.9893678723,5729.7574453124,-11.252571851117,3.3374683225396e-12,5589.317153932,4.5455901195868e-11,1260.8650820963
1.8609999999999,4367.8499982987,-7.751493891206e-12,969.09884803161,4481.6679434237,-0.0020200558039392,1.8939948567831e-11,4375.2689451512,5.1996837391322e-11,970.75703073051,5453.2682663802,5.7659514315911e-11,1207.8117993709,3.0149792153868,1.3074352364639e-11,277.55857389181,5585.3178177753,-9.9118213636729e-12,1239.2195390871,5729.7534624829,-11.250857796845,1.1992082674106e-11,5591.287302869,5.4231501234181e-11,1252.0813150167
1.8619999999999,4369.3570151301,-7.9813933240303e-12,962.23447025882,4481.6667032813,-0.0020291007127753,1.2846339443595e-11,4376.7871952943,4.584543421976e-11,963.8829215283,5457.0595600265,5.765402912028e-11,1199.675548405,3.0184773028373,1.3090598049992e-11,273.78794467531,5587.2666749124,-1.0205850053957e-11,1230.446623864,5729.7494824881,-11.249104904531,4.1970654382495e-12,5593.2436589973,4.6365581513053e-11,1243.294432354
1.8629999999999,4370.8532440999,-8.169305509842e-12,955.36774926162,4481.6654631442,-0.0020381631452153,1.5549245918622e-11,4378.2946453282,4.8675743991033e-11,957.0064379276,5460.8252732521,5.7654908625082e-11,1191.5274617123,3.0219753809689,1.3080631629941e-11,270.04289587909,5589.2017522915,-1.0446178644319e-11,1221.6706438395,5729.74550539,-11.247313178623,7.6533857376604e-12,5595.1862173912,4.9984957145588e-11,1234.5044557666
1.8639999999999,4372.338681565,-8.2732085071591e-12,948.4987019939,4481.6642230128,-0.0020472429569054,8.752633166853e-12,4379.7912915404,4.1982041974753e-11,950.12759689674,5464.5653690079,5.7463478420061e-11,1183.3676197176,3.0254734497775,1.2851804689906e-11,266.3234645522,5591.1230450929,-1.0579120912624e-11,1212.8916206577,5729.7415312502,-11.245482623331,-1.0364131428076e-12,5597.1149731589,4.1425501917658e-11,1225.7114069206
1.8649999999999,4373.8133239093,-8.3819756691028e-12,941.62734541525,4481.6629828854,-0.0020563402579796,1.2137462042372e-11,4381.2771302427,4.5407590014424e-11,943.24641540962,5468.2798104977,5.7456673099865e-11,1175.1961029617,3.0289715092646,1.2757996915858e-11,262.62968749085,5593.030548531,-1.0718245735397e-11,1204.1095759704,5729.7375601276,-11.243613243285,3.2941522773444e-12,5599.0299214396,4.5806054262132e-11,1216.9153074894
1.8659999999999,4375.2771675429,-8.3091103442179e-12,934.75369649087,4481.6617427634,-0.0020654550031338,1.6212492286172e-11,4382.7521577766,4.9447139091607e-11,936.36291044641,5471.9685611783,5.7651071416753e-11,1167.0129921004,3.0324695594201,1.2614211324785e-11,258.96160123802,5594.9242578541,-1.0625035573586e-11,1195.3245314368,5729.7335920849,-11.241705043016,8.5029778357226e-12,5600.9310574105,5.0971799697708e-11,1208.1161791545
1.8669999999999,4376.7302089029,-8.7819126970423e-12,927.87777219154,4481.6605026472,-0.0020745871251791,1.4818368754277e-11,4384.2163705093,4.833763857931e-11,929.47709899276,5475.6315847604,5.7087300164849e-11,1158.8183679042,3.0359676002435,1.2530552116752e-11,255.3192420831,5596.8041683445,-1.1229711605054e-11,1186.5365087237,5729.7296271836,-11.239758027121,6.7283218926906e-12,5602.8183762816,4.9553142839054e-11,1199.3140436052
1.8679999999999,4378.1724444529,-7.7384418317727e-12,920.99958949357,4481.6592625353,-0.0020837367111994,1.2855512661336e-11,4385.669764833,4.5741061979743e-11,922.5889980398,5479.2688452085,5.8139054334716e-11,1150.6123112568,3.0394656317346,1.2589819377989e-11,251.70264606157,5598.6702753186,-9.8953900629084e-12,1177.7455295052,5729.7256654827,-11.237772200488,4.2119051302247e-12,5604.6918732947,4.6232843942118e-11,1190.5089225377
1.8689999999999,4379.6038706832,-7.7215386862228e-12,914.11916537877,4481.6580224286,-0.0020929037411292,8.7756590189114e-12,4387.1123371688,4.1741421950847e-11,915.69862458466,5482.8803067413,5.8171878772328e-11,1142.3949031549,3.0429636538843,1.2473959799114e-11,248.1118489546,5600.5225741268,-9.8738101028673e-12,1168.9516154627,5729.7217070446,-11.235747567967,-1.0044942308496e-12,5606.5515437286,4.111831621717e-11,1181.7008376564
1.8699999999999,4381.0244841109,-7.6031680951161e-12,907.23651683441,4481.6567823271,-0.0021020882714708,1.5561398523933e-11,4388.5440839635,4.848880411773e-11,908.80599562994,5486.4659338323,5.8289933643763e-11,1134.1662247073,3.046461666694,1.2293447076289e-11,244.54688628872,5602.3610601536,-9.7225005823987e-12,1160.1547882852,5729.7177519301,-11.2336841346,7.6720131983454e-12,5608.397382895,4.974686114434e-11,1172.889810673
1.8709999999999,4382.4342812797,-7.6829514972232e-12,900.35166085315,4481.6555422301,-0.0021112901332003,1.4212815820092e-11,4389.9650016904,4.7060036423296e-11,901.91112818346,5490.0256912098,5.8519401130441e-11,1125.9263571336,3.0499596701561,1.222567012904e-11,241.00779333547,5604.1857288175,-9.8245439561495e-12,1151.3550696688,5729.7138001992,-11.231581905236,5.9486226708372e-12,5610.2293861389,4.7919904155869e-11,1164.075863306
1.8719999999999,4383.83325876,-7.7001599541049e-12,893.46461443305,4481.6543021384,-0.0021205094489574,1.965060059117e-11,4391.3750868504,5.243162848334e-11,895.01403925914,5493.5595438577,5.8520157469877e-11,1117.6753817642,3.053457664274,1.2379870999862e-11,237.49460511104,5605.9965755712,-9.8465957609761e-12,1142.5524813166,5729.7098519141,-11.229440885194,1.2900782872527e-11,5612.0475488411,5.4789182739323e-11,1155.2590172822
1.8729999999999,4385.2214131489,-6.5993321918256e-12,886.57539457747,4481.6530620519,-0.002129746234516,2.1060610720658e-11,4392.7743359706,5.3259449801779e-11,888.11474587607,5497.0674570155,5.8842099595613e-11,1109.4133800388,3.0569556490377,1.234632318256e-11,234.00735637593,5607.7935959013,-8.4388399046453e-12,1133.7470449391,5729.7059071353,-11.227261079753,1.4706764452088e-11,5613.8518664157,5.5847941722587e-11,1146.4392943354
1.8739999999999,4386.5987410702,-6.4910299357734e-12,879.68401829507,4481.6518219695,-0.0021390004046395,1.087297613056e-11,4394.1627456039,4.3161919351109e-11,881.2132650585,5500.5493961785,5.88031862786e-11,1101.140433506,3.060453624446,1.2280973980816e-11,230.54608163461,5609.5767853288,-8.3004436657319e-12,1124.9387822539,5729.7019659228,-11.225042494154,1.6814006784105e-12,5615.6423343095,4.2935350587359e-11,1137.6167162059
1.8749999999999,4387.9652391747,-6.2647248499914e-12,872.79050259976,4481.650581893,-0.0021482720083839,1.3609190163688e-11,4395.5403123325,4.5790428740422e-11,874.30961383673,5504.0053270986,5.9077548408837e-11,1092.8566238223,3.063951590498,1.2143242140994e-11,227.1108151352,5611.3461394084,-8.0110987288329e-12,1116.1277149856,5729.6980283395,-11.222785133913,5.1696103994803e-12,5617.4189480071,4.6296828350167e-11,1128.7913046426
1.8759999999999,4389.3209041395,-6.9293737414711e-12,865.89486451063,4481.6493418198,-0.0021575609478361,1.1554397195968e-11,4396.9070327614,4.3851470198086e-11,867.40380924544,5507.4352157845,5.9041636163437e-11,1084.5620327515,3.0674495471876,1.2078324451714e-11,223.70159086908,5613.1016537293,-8.8610646598042e-12,1107.3138648657,5729.6940944431,-11.220489004443,2.5487658858458e-12,5619.1817030216,4.3817382881783e-11,1119.9630814
1.8769999999999,4390.6657326688,-6.9976108241221e-12,858.99712105196,4481.6481017532,-0.0021668673813622,1.8348116428979e-11,4398.2629035277,5.055607842086e-11,860.49586832596,5510.8390285017,5.9260926027482e-11,1076.2567421636,3.0709474945119,1.1936493460318e-11,220.31844257059,5614.8433239146,-8.9483906395849e-12,1098.4972536328,5729.6901642987,-11.218154111596,1.1235146493704e-11,5620.9305949078,5.2391469634872e-11,1111.1320682413
1.8779999999999,4391.9997214933,-6.8568553612813e-12,852.0972892531,4481.6468616905,-0.002176191210026,1.6297944764598e-11,4399.6079212898,4.8605080897601e-11,853.58580812351,5514.2167317733,5.8988291681827e-11,1067.9408340343,3.0744454324687,1.1890751838023e-11,216.96140371671,5616.5711456217,-8.7684581817626e-12,1089.6779030322,5729.6862379638,-11.215780460973,8.6201297835875e-12,5622.6656192472,4.9896628495638e-11,1102.2982869353
1.8789999999999,4393.3228673707,-7.8056866525955e-12,845.19538614853,4481.6456216321,-0.0021855324363003,1.4214358856623e-11,4400.9420827359,4.7075807661778e-11,846.67364568924,5517.5682923798,5.8519581541683e-11,1059.6143904438,3.0779433610503,1.1798728227069e-11,213.63050752669,5618.2851145421,-9.9818417420572e-12,1080.8558348161,5729.6823154999,-11.213368058412,5.9506366847928e-12,5624.3867716593,4.7941085996872e-11,1093.4617592585
1.8799999999999,4394.6351670853,-7.8013082105421e-12,838.29142877773,4481.6443815791,-0.0021948910236063,1.4213085569592e-11,4402.2653845813,4.7058884566908e-11,839.75939807952,5520.8936773601,5.8512130904353e-11,1051.2774935766,3.0814412802633,1.1532826343225e-11,210.32578696176,5619.9852264013,-9.9762628713584e-12,1072.0310707435,5729.6783969691,-11.210916909795,5.9490841072818e-12,5626.0940477987,4.7919571088961e-11,1084.6225069945
1.8809999999999,4395.9366174482,-7.2176084553455e-12,831.38543418518,4481.6431415298,-0.0022042670914573,1.4229481308525e-11,4403.5778235657,4.6916302440247e-11,832.84308235551,5524.1928540112,5.8717105830275e-11,1042.9302257199,3.0849391900935,1.1539353673984e-11,207.04727472479,5621.6714769593,-9.229852993009e-12,1063.2036325803,5729.6744824303,-11.208427021295,5.9708184577123e-12,5627.7874433505,4.7737357469768e-11,1075.7805519331
1.8819999999999,4397.2272152974,-7.4656392179406e-12,824.47741942031,4481.6419014862,-0.002213660523438,1.5591727561826e-11,4404.8793964592,4.8226248515471e-11,825.92471558393,5527.465789889,5.8611901790351e-11,1034.5726692635,3.0884370905439,1.1444513739467e-11,203.79500325996,5623.34386201,-9.5471269778713e-12,1054.3735420987,5729.6705719467,-11.205898398886,7.711434789337e-12,5629.4669540389,4.9412696156992e-11,1066.9359158719
1.8829999999999,4398.5069574975,-8.2756579367071e-12,817.56740153745,4481.6406614472,-0.0022230713129261,1.2154263706599e-11,4406.1701000555,4.5236049281416e-11,819.00431483605,5530.7124528081,5.8585735221439e-11,1026.2049066986,3.091934981611,1.1132155960936e-11,200.56900475245,5625.0023773817,-1.0583062204361e-11,1045.5408210778,5729.666665578,-11.203331048771,3.3157452478116e-12,5631.1325756184,4.5588823514853e-11,1058.0886206143
1.8839999999999,4399.7758409401,-8.1481557612229e-12,810.65539759581,4481.6394214126,-0.0022324995411225,1.6239541829333e-11,4407.4499311761,4.9180922355452e-11,812.08189718843,5533.9328108428,5.8394686655583e-11,1017.8270206171,3.0954328632883,1.1108756709649e-11,197.3693111281,5626.6470189368,-1.0419998197619e-11,1036.7054913031,5729.6627633847,-11.200724977364,8.541529462891e-12,5632.7843038788,5.0633852145821e-11,1049.2386879709
1.8849999999999,4401.0338625434,-7.5746145467015e-12,803.7414246594,4481.6381813828,-0.0022419450905318,1.4917018141547e-11,4408.71888667,4.7539049953527e-11,805.1574797225,5537.1268323266,5.8915736872445e-11,1009.4390937108,3.0989307355752,1.1187107663846e-11,194.19595405315,5628.2777825719,-9.6865709897642e-12,1027.8675745667,5729.6588654281,-11.198080190921,6.8483231238647e-12,5634.4221346451,4.8534264281141e-11,1040.3861397589
1.8859999999999,4402.2810192526,-7.609815555476e-12,796.82549979704,4481.6369413575,-0.0022514080712881,1.4900190456468e-11,4409.9769634124,4.762726584645e-11,798.23107952473,5540.2944858534,5.8936229160866e-11,1001.0412087704,3.1024285984675,1.1042704511216e-11,191.04896493387,5629.8946642179,-9.7316738001396e-12,1019.0270926671,5729.6549717689,-11.195396696083,6.8299055647203e-12,5636.0460637754,4.8647211259301e-11,1031.5309978022
1.8869999999999,4403.5173080397,-7.5941058996776e-12,789.90764008226,4481.6357013361,-0.0022608883987232,2.6434053730651e-11,4411.2241583045,5.9152571729726e-11,791.30271368617,5543.4357402771,5.853191195615e-11,992.63344868498,3.1059264519601,1.0850837155879e-11,187.92837491626,5631.49765984,-9.7115926411817e-12,1010.1840674093,5729.6510824667,-11.192674499338,2.1578631242969e-11,5637.6560871616,6.3386674381549e-11,1022.6732839308
1.8879999999999,4404.7427259034,-7.004334612315e-12,782.98786259331,4481.6344613198,-0.0022703861741036,1.8292453489444e-11,4412.4604682769,5.106510526931e-11,784.37239930329,5546.5505647121,5.8711341344164e-11,984.21589644099,3.1094242960504,1.06992331661e-11,184.83421488579,5633.0867654374,-8.957404262766e-12,1001.3385206046,5729.6471975843,-11.18991360751,1.116298026238e-11,5639.2522007327,5.3044009289127e-11,1013.8130199822
1.8889999999999,4405.9572698694,-7.366829368749e-12,776.06618441309,4481.6332213074,-0.0022799012587882,1.4901498437969e-11,4413.6858902843,4.7640491378231e-11,777.44015347664,5549.6389285339,5.8954122833521e-11,975.78863512148,3.1129221307391,1.0620013115442e-11,181.76651546703,5634.6619770439,-9.4210195200617e-12,992.49047407046,5729.6433171807,-11.187114027207,6.8286877888402e-12,5640.8344004484,4.8664492574568e-11,1004.9502277991
1.8899999999999,4407.16093699,-7.8961490124208e-12,769.14262262909,4481.6319812997,-0.0022894337698744,8.1043479219223e-12,4414.9004213101,4.0950755807179e-11,770.50599331216,5552.7008013789,5.8771314204176e-11,967.35174790523,3.1164199560185,1.0651587251109e-11,178.72530702339,5636.2232907273,-1.0097991887115e-11,983.63994963074,5729.6394413178,-11.184275765464,-1.859058046394e-12,5642.4026823056,4.010923537745e-11,996.08492923158
1.8909999999999,4408.3537243447,-7.5318778991473e-12,762.21719433339,4481.6307412967,-0.0022989835979104,1.6271982025695e-11,4416.1040583642,4.8897832831407e-11,763.56993592011,5555.7361531453,5.8856914134098e-11,958.90531806604,3.1199177718874,1.0680324246531e-11,175.7106196568,5637.7707025897,-9.6321908782393e-12,974.78696911542,5729.6355700565,-11.18139882912,8.5819519893282e-12,5643.9570423342,5.0272764250126e-11,987.21714613559
1.8919999999999,4409.5356290396,-7.102034238482e-12,755.2899166226,4481.6295012988,-0.0023085507617111,1.2208590041696e-11,4417.2967984834,4.4733672495412e-11,756.63199841565,5558.7449539928,5.9142142572188e-11,950.44942897178,3.1234155783418,1.0435729537461e-11,172.72248320744,5639.3042087677,-9.0825263976413e-12,965.93155436063,5729.6317034579,-11.178483225273,3.3876105046127e-12,5645.4974765992,4.4947388692929e-11,978.34690037356
1.8929999999999,4410.7066482078,-7.4679429307167e-12,748.36080659781,4481.6282613037,-0.0023181353604116,1.4226485441082e-11,4418.4786387289,4.6962261336658e-11,749.69219791815,5561.7271743433,5.8921464929362e-11,941.98416408366,3.1269133753788,1.0276855538435e-11,169.76092725341,5640.823805432,-9.5504992803086e-12,957.07372720857,5729.6278415798,-11.175528961216,5.9657920964407e-12,5647.0239811964,4.7797647784176e-11,969.47421381371
1.8939999999999,4411.866779009,-7.3727621230368e-12,741.42988136455,4481.6270213136,-0.0023277372549444,1.7625790584008e-11,4419.6495761931,5.0262596168471e-11,742.75055155214,5564.6827848809,5.8957708506946e-11,933.50960695538,3.1304111629936,1.0262117544624e-11,166.82598111046,5642.3294887877,-9.4288049590219e-12,948.21350950746,5729.623984486,-11.172536044041,1.0314087257879e-11,5648.5365522615,5.2018576078561e-11,960.5991083311
1.8949999999999,4413.0160186303,-7.5427511458948e-12,734.49715803275,4481.6257813284,-0.0023373565256861,1.6257915153028e-11,4420.8096079932,4.8932377247346e-11,735.80707644647,5567.6117565525,5.9032757848687e-11,925.02584123228,3.1339089411838,1.0278156797883e-11,163.91767383169,5643.8212550741,-9.6462837717581e-12,939.3509231115,5729.6201322368,-11.16950448121,8.569058657093e-12,5650.0351859618,5.031749236023e-11,951.72160580667
1.8959999999999,4414.1543642852,-7.1676969914947e-12,727.56265371671,4481.6245413461,-0.0023469931617228,7.464634813048e-12,4421.9587312715,3.9938206387868e-11,728.86178973413,5570.514060568,5.9357628187651e-11,916.53295065055,3.1374067099491,1.0198868442488e-11,161.03603420729,5645.2991005651,-9.1666396695445e-12,930.4859898808,5729.6162848906,-11.166434280162,-2.6789490764623e-12,5651.5198784967,3.8814874057935e-11,942.84172812697
1.8969999999999,4415.2818132142,-7.1054620520705e-12,720.62638553504,4481.6233013696,-0.0023566470980541,1.7641573098193e-11,4423.0969432017,5.0069725275603e-11,721.91470855331,5573.3896684002,5.9495946364008e-11,908.03101903638,3.1409044692794,1.0063777935998e-11,158.18109076421,5646.7630215685,-9.0870713731483e-12,921.61873168132,5729.6124425118,-11.163325448371,1.0336126919641e-11,5652.9906261058,5.1772349428381e-11,933.9594971855
1.8979999999999,4416.398362685,-7.2382169702401e-12,713.68837061062,4481.6220613963,-0.0023663183748965,1.6946467666645e-11,4424.2242409793,4.9566252144362e-11,714.9658500458,5576.2385517858,5.925486143421e-11,899.52013030513,3.1444022191775,9.9295385282139e-12,155.35287176594,5648.2130144269,-9.2569285570221e-12,912.74917038485,5729.6086051576,-11.160177993531,9.4466812844418e-12,5654.4474250563,5.1128586607552e-11,925.07493488068
1.8989999999999,4417.5040099918,-6.9985336970113e-12,706.74862607057,4481.6208214277,-0.0023760070486958,1.559583712174e-11,4425.3406218307,4.8177061298671e-11,708.01523135849,5579.0606827248,5.9280084313551e-11,891.00036846053,3.1478999596368,9.8036182036992e-12,152.55140521214,5649.649075517,-8.9504167966048e-12,903.87732786892,5729.6047728907,-11.156991923457,7.7173120324736e-12,5655.8902716551,4.9352046754825e-11,916.18806311776
1.8999999999999,4418.5987524559,-7.5650388731141e-12,699.80716904618,4481.6195814634,-0.0023857130382225,1.1506053054777e-11,4426.4460830075,4.4280344148329e-11,701.06286964213,5581.8560334818,5.9214943712305e-11,882.47181759382,3.1513976906562,9.6052801129565e-12,149.77671883848,5651.0712012498,-9.6749691591569e-12,895.00322601675,5729.6009457714,-11.153767245885,2.4878961737973e-12,5657.3191622411,4.4368537489847e-11,907.29890380728
1.9009999999999,4419.6825874256,-7.2018224717141e-12,692.86401667293,4481.6183415032,-0.0023954363764176,1.2196983006918e-11,4427.540621788,4.4835393210596e-11,694.1087820519,5584.6245765852,5.9384563239062e-11,873.93456188295,3.1548954122316,9.5855918688659e-12,147.02884011626,5652.479388071,-9.2105351123806e-12,886.12688671723,5729.5971238599,-11.150503968787,3.3704818450109e-12,5658.7340931875,4.5078528583542e-11,898.40747886571
1.9019999999999,4420.755512276,-7.4739450739436e-12,685.91918609037,4481.6171015475,-0.0024051769627818,1.149343294149e-11,4428.6242354787,4.4352779261791e-11,687.15298574722,5587.3662848284,5.9228285470558e-11,865.38868559172,3.1583931243597,9.3675575109364e-12,144.30779625222,5653.8736324603,-9.5585761528127e-12,877.24833186483,5729.5933072176,-11.147202100064,2.4730226547143e-12,5660.1350609032,4.4461407645857e-11,889.51381021528
1.9029999999999,4421.8175244091,-7.6164907714116e-12,678.97269444211,4481.6158615952,-0.0024149349130198,1.9647027928171e-11,4429.6969214108,5.239998279033e-11,680.19549789165,5590.0811312695,5.9161311266598e-11,856.83427306894,3.1618908270364,9.4194153345273e-12,141.6136141882,5655.253930932,-9.7409094679257e-12,868.36758335955,5729.5894959035,-11.143861647986,1.289858844733e-11,5661.5220618291,5.4753471721847e-11,880.61791978385
1.9039999999999,4422.868621254,-7.6439132801198e-12,672.0245588758,4481.6146216468,-0.0024247101146102,1.6920124155939e-11,4430.7586769449,4.9764953442832e-11,673.236335653,5592.7690892316,5.9401010152338e-11,848.27140874766,3.1653885202571,9.3859009106523e-12,138.94632060095,5656.6202800348,-9.7760410877612e-12,859.48466310689,5729.585689979,-11.140482620628,9.415036458793e-12,5662.895092443,5.1383538916816e-11,871.71982950499
1.9049999999999,4423.9088002667,-7.097919474397e-12,665.07479654306,4481.6133817036,-0.0024345027034371,1.899058774818e-11,4431.8094994685,5.1504515929945e-11,666.27551620349,5595.4301323034,5.9588506004515e-11,839.70017714427,3.1688862040233,9.1739946802422e-12,136.30594190179,5657.9726763518,-9.0778148886805e-12,850.59959301777,5729.5818895062,-11.137065026481,1.2059989291935e-11,5664.2541492578,5.3608504788083e-11,862.81956131825
1.9059999999999,4424.9380589299,-6.656210305156e-12,658.12342459945,4481.6121417633,-0.0024443125938092,1.2217122279112e-11,4432.8493863933,4.4680086019877e-11,659.31305671873,5598.0642343391,5.985031047151e-11,831.12066285768,3.1723838783278,8.967169888574e-12,133.69250423642,5659.3111165004,-8.5128848414939e-12,841.71239500849,5729.5780945431,-11.133608873839,3.3938407639766e-12,5665.5992288166,4.4880463061225e-11,853.91713716783
1.9069999999999,4425.9563947537,-6.9121097734381e-12,651.17046020442,4481.6109018271,-0.0024541398088047,1.9664306641354e-11,4433.8783351609,5.2240618081401e-11,652.34897437896,5600.671369459,5.9619477757455e-11,822.53295056853,3.1758815431674,8.950260671492e-12,131.10603348461,5660.6355971326,-8.84013695579e-12,832.82309100066,5729.5743051515,-11.130114171239,1.2919909066211e-11,5666.9303277013,5.4550254070806e-11,845.01257900415
1.9079999999999,4426.9638052748,-7.2839442810668e-12,644.21592052127,4481.6096618951,-0.0024639842727368,1.149696136904e-11,4434.8963432391,4.4342115916585e-11,645.38328636814,5603.2515120494,5.9277509983913e-11,813.93712503827,3.179379198538,8.9579459301714e-12,128.54655525996,5661.9461149347,-9.3157773162211e-12,823.93170292117,5729.5705213923,-11.126580927184,2.4761998007605e-12,5668.2474425267,4.4448446659406e-11,836.10590878274
1.9089999999999,4427.960288057,-7.4534267646698e-12,637.25982271711,4481.6084219668,-0.0024738460023173,1.3532714011888e-11,4435.9034081219,4.6388156337007e-11,638.41600987421,5605.8046367631,5.9271547739326e-11,805.33327110842,3.1828768444451,8.7381352154026e-12,126.01409490968,5663.2426666274,-9.5325691784609e-12,815.03825270212,5729.5667433253,-11.123009150388,5.0766240169975e-12,5669.5505699416,4.7065404525093e-11,827.19714846451
1.9099999999999,4428.945840691,-7.5834755142168e-12,630.30218396282,4481.607182043,-0.0024837251812357,1.3520725337945e-11,4436.8995273316,4.6486354696174e-11,631.44716208937,5608.3307185194,5.926073000373e-11,796.72147369966,3.1863744808699,8.6475091410493e-12,123.50867751427,5664.5252489661,-9.6989777320644e-12,806.14276228078,5729.562971012,-11.119398849878,5.062599645056e-12,5670.8397066307,4.7191123404844e-11,818.28632001612
1.9109999999999,4429.9204607947,-7.1187639116843e-12,623.34302143299,4481.6059421228,-0.0024936214248612,1.4922697626207e-11,4437.8846984162,4.7425690978542e-11,624.47676020887,5610.8297325048,5.984224574207e-11,788.10181781103,3.1898721078222,8.5328079237751e-12,121.03032788735,5665.7938587404,-9.1046059580435e-12,797.24525359951,5729.5592045121,-11.115750034045,6.8573549616424e-12,5672.1148493113,4.8392646660733e-11,809.37344540847
1.9119999999999,4430.8841460128,-7.3493433561111e-12,616.38235230592,4481.6047022065,-0.0025035350240898,9.4630457983524e-12,4438.8589189514,4.2286673294922e-11,617.50482143262,5613.3016541728,5.9554781245419e-11,779.47438851905,3.1933697252947,8.4472403030778e-12,118.57907057536,5667.0484927745,-9.3995644601108e-12,788.34574860572,5729.5554438862,-11.112062712241,-1.2395293125245e-13,5673.3759947363,4.1820017067373e-11,800.45854661874
1.9129999999999,4431.836894017,-7.1570041559887e-12,609.42019376351,4481.6034622939,-0.0025134660050981,1.7602474165768e-11,4439.8221865396,5.0430268468127e-11,610.531362964,5615.7464592442,5.9489451559314e-11,770.83927097696,3.1968673332805,8.2913064435031e-12,116.15492985734,5668.289147927,-9.1536361823685e-12,779.44426925183,5729.5516891946,-11.108336893576,1.0284650735215e-11,5674.6231396929,5.2235765192477e-11,791.54164562883
1.9139999999999,4432.7787025059,-7.2648553839372e-12,602.4565629913,4481.6022223853,-0.0025234141604642,4.7416758020002e-12,4440.7744988109,3.737563036843e-11,603.55640200995,5618.1641237077,5.9761993964624e-11,762.19655041377,3.2003649317813,8.1285895982969e-12,113.7579297447,5669.5158210911,-9.2915536376026e-12,770.5408374952,5729.5479404983,-11.104572586954,-6.1688466834742e-12,5675.8562810034,3.5539006633389e-11,782.62276442556
1.9149999999999,4433.7095692055,-7.1047195904228e-12,595.49147717835,4481.60098248,-0.0025333796145617,1.8986589210568e-11,4441.7158534213,5.1575473059007e-11,596.57995578131,5620.5546238197,6.0239067206647e-11,753.54631213352,3.2038625207893,8.056735400358e-12,111.38809398095,5670.7285091942,-9.0867938173922e-12,761.63547529806,5729.5441978568,-11.100769801798,1.2050207186254e-11,5677.0754155231,5.3700792944367e-11,773.701925001
1.9159999999999,4434.6294918683,-6.6707889212481e-12,588.52495351726,4481.5997425793,-0.0025433623314655,1.5603620825977e-11,4442.6462480556,4.8095987262298e-11,589.60204149266,5622.9179361046,6.0132801515955e-11,744.88864151438,3.2073601003071,8.0461924015923e-12,109.04544604151,5671.9272091987,-8.5318835330028e-12,752.72820462751,5729.5404613321,-11.096928547424,7.725801769165e-12,5678.2805401444,4.9250634820419e-11,764.77914935235
1.9169999999999,4435.5384682742,-7.1466235707085e-12,581.55700920406,4481.5985026806,-0.0025533622959699,1.8290730909032e-11,4443.5656804222,5.0988234467919e-11,582.62267636173,5625.2540373555,5.9982904060396e-11,736.22362400781,3.2108576703251,7.9461012422732e-12,106.73000913343,5673.1119181009,-9.1404869784206e-12,743.8190474554,5729.5367309816,-11.093048833264,1.1166166949406e-11,5679.4716517898,5.2949995082985e-11,755.85445948117
1.9179999999999,4436.4364962298,-6.2662791622259e-12,574.58766143826,4481.5972627883,-0.0025633795211206,1.8351500874481e-11,4444.4741482632,5.0485607014372e-11,575.64187761074,5627.5629046338,6.0476592483871e-11,727.55134513776,3.2143552308436,7.8729778772713e-12,104.44180619521,5674.2826329322,-8.0145404202092e-12,734.90802575831,5729.5330068711,-11.089130668892,1.1239332381452e-11,5680.6487474246,5.230727222888e-11,746.92787739504
1.9189999999999,4437.3235735691,-6.5809371840864e-12,567.61692742271,4481.5960228976,-0.0025734140322413,1.491500326023e-11,4445.3716493389,4.7441812631166e-11,568.65966246426,5629.8445152698,6.0273111154863e-11,718.87189049976,3.2178527818598,7.7612785989722e-12,102.18085989653,5675.439350758,-8.417058716681e-12,725.99516151751,5729.529289055,-11.085174063977,6.8492303842427e-12,5681.8118240373,4.8414311622225e-11,737.9994251049
1.9199999999999,4438.1996981528,-6.7656366620206e-12,560.64482436362,4481.5947830123,-0.0025834657469943,1.016332157322e-11,4446.2581814447,4.2787679649381e-11,561.67604815135,5632.0988468626,5.9999257298604e-11,710.18534576013,3.2213503233679,7.5321519854565e-12,99.947192638074,5676.5820686786,-8.6532933596395e-12,717.08047671888,5729.5255775985,-11.08117902816,7.6889015987458e-13,5682.9608786618,4.246166786237e-11,729.0691246277
1.9209999999999,4439.0648678689,-6.0301208471003e-12,553.67136947051,4481.5935431294,-0.0025935347312611,1.0195910955801e-11,4447.1337423969,4.2496030999706e-11,554.69105190379,5634.325877281,6.0090274769942e-11,701.4917966551,3.2248478553686,7.4752816783818e-12,97.740826551252,5677.7107838287,-7.7126013908746e-12,708.16399335285,5729.5218725583,-11.077145571355,8.102511717123e-13,5684.0959083582,4.2088757826186e-11,720.13699798424
1.9219999999999,4439.9190806321,-6.1736379897148e-12,546.69657995613,4481.5923032497,-0.0026036209368101,1.2910680337319e-11,4447.9983300422,4.5097426661089e-11,547.70469095712,5636.5255846628,6.0402216214839e-11,692.79132899001,3.2283453778522,7.3643972864357e-12,95.561783498024,5678.8254933776,-7.8961698291025e-12,699.24573341437,5729.5181739956,-11.073073703431,4.2878279052361e-12,5685.2169102255,4.5416154344224e-11,711.20306720042
1.9229999999999,4440.7623343845,-6.0594446127382e-12,539.72047303647,4481.591063375,-0.0026137243502831,1.4956089318396e-11,4448.8519422557,4.7094900895717e-11,540.71698255041,5638.6979474158,6.0427735731894e-11,684.08402863839,3.2318428908208,7.4210429468202e-12,93.410085070675,5679.926194529,-7.7501685624703e-12,690.32571890286,5729.5144819732,-11.068963434398,6.8996839491797e-12,5686.323881399,4.7971137479008e-11,702.26735430696
1.9239999999999,4441.5946270951,-6.0458443806866e-12,532.74306593069,4481.5898235023,-0.0026238450152789,1.1571276922751e-11,4449.6945769345,4.3633274944554e-11,533.72794392549,5640.8429442176,6.0461203751916e-11,675.36998154118,3.235340394272,7.3456529487564e-12,91.285752591598,5681.0128845212,-7.7328282666045e-12,681.4039718221,5729.5107965474,-11.064814774427,2.571881943525e-12,5687.4168190423,4.3543668670765e-11,693.32988133844
1.9249999999999,4442.4159567598,-6.0681390467998e-12,525.76437586106,4481.5885836339,-0.0026339828630455,4.7585008849937e-12,4450.5262320083,3.7224461360563e-11,526.73759232801,5642.9605540157,5.9895402873544e-11,666.64927370585,3.2388378881981,7.0134338874678e-12,89.18880711308,5682.0855606272,-7.7613193649739e-12,672.48051418026,5729.5071177817,-11.060627733648,-6.1480230628685e-12,5688.4957203604,3.5346556410965e-11,684.39067033466
1.9259999999999,4443.2263214019,-6.4644262165459e-12,518.78442005296,4481.5873437697,-0.0026441379703783,1.0859807844654e-11,4451.3469054315,4.3246254667617e-11,519.74594500669,5645.0507560281,6.0178504540653e-11,657.92199120555,3.2423353725955,7.1271215925511e-12,87.119269417099,5683.1442201545,-8.2682471980178e-12,663.55536798978,5729.5034457363,-11.056402322467,1.6633725646864e-12,5689.5605825899,4.3048896045117e-11,675.44974333964
1.9269999999999,4444.0257190715,-6.6223623806927e-12,511.8032157348,4481.5861039084,-0.0026543102651289,1.21977428158e-11,4452.1565951841,4.4765587937923e-11,512.75301921317,5647.1135297435,5.9807771582432e-11,649.18822017828,3.2458328474654,6.9069756424706e-12,85.077160015127,5684.1888604451,-8.4702800329239e-12,654.62855526734,5729.4997804696,-11.052138551193,3.3772472665672e-12,5690.6114030003,4.4992341449723e-11,666.50712240144
1.9279999999999,4444.8141478459,-6.7859745600529e-12,504.820780138,4481.5848640507,-0.00266449971258,1.5594372147765e-11,4452.9552992755,4.8105129255016e-11,505.75883220247,5649.1488549209,5.9815961211962e-11,640.44804682601,3.2493303128012,6.7440335000529e-12,83.06249914791,5685.2194788757,-8.6795778897475e-12,645.70009803381,5729.4961220428,-11.047836430282,7.7191265532295e-12,5691.6481788986,4.9263972241864e-11,657.5628295728
1.9289999999999,4445.5916058293,-6.8205233128005e-12,497.83713049693,4481.5836241949,-0.0026747065189028,2.4417807185928e-11,4453.7430157398,5.6862827814419e-11,498.76340123273,5651.1567115905,5.9977524682897e-11,631.70155741385,3.2528277686028,6.8900777010911e-12,81.075306785289,5686.2360728574,-8.7237578272337e-12,636.77001831418,5729.4924705142,-11.043495970586,1.9005117792015e-11,5692.6709076231,6.0465864953896e-11,648.61688691071
1.9299999999999,4446.3580911532,-6.8683114751167e-12,490.85228404889,4481.582384344,-0.0026849304351941,1.2208224015042e-11,4454.5197426428,4.4685373457032e-11,491.76674356517,5653.1370800535,5.9994387929807e-11,622.94883826921,3.256325214864,6.435100499344e-12,79.115602625983,5687.2386398362,-8.7849727492539e-12,627.83833813753,5729.4888259477,-11.03911718248,3.3862426751519e-12,5693.6795865528,4.4890070827197e-11,639.66931647649
1.9309999999999,4447.1136019761,-7.0403127772067e-12,483.86625803406,4481.5811444967,-0.002695171507753,1.6257403409603e-11,4455.2854780731,4.8910292482773e-11,484.76887646387,5655.0899408825,5.97614527309e-11,614.18997578092,3.2598226515818,6.4368775067047e-12,77.183406097406,5688.2271772925,-9.0049981360529e-12,618.90507953693,5729.4851884019,-11.034700076805,8.5686163026066e-12,5694.6742130959,5.0294231453141e-11,630.72014033539
1.9319999999999,4447.8581364835,-6.4651825559814e-12,476.87906969542,4481.5799046521,-0.0027054297449638,1.5599586726533e-11,4456.0402201469,4.812380615532e-11,477.76981719589,5657.0152749215,5.9919194606017e-11,605.42505639839,3.2633200787512,6.5554410857982e-12,75.278736355474,5689.2016827412,-8.2693990544058e-12,609.97026454946,5729.4815579358,-11.030244664444,7.7234755049838e-12,5695.6547846958,4.9288375464362e-11,621.76938055676
1.9329999999999,4448.5916928882,-6.3998181754066e-12,469.89073627877,4481.5786648102,-0.0027157051904823,1.6968484777002e-11,4456.7839670084,4.9333126993234e-11,470.76958303135,5658.9130632863,6.003329604265e-11,596.65416663076,3.2668174963747,6.4191822430476e-12,73.401612284423,5690.162153732,-8.1858061995455e-12,601.03391521608,5729.4779346098,-11.025750956426,9.4772176217894e-12,5696.6212988317,5.0835345481726e-11,612.81705921426
1.9339999999999,4449.3142694298,-6.6397373710281e-12,462.90127503266,4481.5774249727,-0.002725997808227,1.6289424670246e-11,4457.5167168306,4.8655746098802e-11,463.76819124335,5660.7832873643,6.0205347651721e-11,587.87739304604,3.2703149044452,6.4447319009231e-12,71.552052496606,5691.1085878493,-8.4927689880665e-12,592.09605358161,5729.4743184859,-11.021218963773,8.6104691085498e-12,5697.5737530194,4.9969038455611e-11,603.86319838561
1.9349999999999,4450.0258643752,-7.2352401847553e-12,455.91070320831,4481.5761851378,-0.0027363076031719,1.7617598352393e-11,4458.2384678102,5.028749378716e-11,456.76565910752,5662.6259288154,5.9805570218341e-11,579.09482227025,3.2738123029589,6.2511003318111e-12,69.73007533232,5692.0409827119,-9.2544930052618e-12,583.15670169468,5729.4707096223,-11.016648697649,1.0307320101599e-11,5698.5121448052,5.2056348814888e-11,594.90782015211
1.9359999999999,4450.7264760184,-6.5541391758295e-12,448.91903805963,4481.5749453066,-0.0027466345818823,1.6952236489565e-11,4458.949218174,4.9477851503388e-11,449.76200390259,5664.4409695714,6.0135139923201e-11,570.3065409866,3.2773096919133,6.1238256219426e-12,67.935698859629,5692.9593359733,-8.3833148756263e-12,574.21588160768,5729.4671080804,-11.012040169319,9.456250886497e-12,5699.4364717738,5.1020867218587e-11,585.95094659937
1.9369999999999,4451.4161026805,-6.8569386280082e-12,441.92629684315,4481.5737054791,-0.0027569786700496,1.1513842830546e-11,4459.6489661745,4.4125360483538e-11,442.75724290988,5666.2283918366,6.0105850852032e-11,561.51263593458,3.2808070713046,6.0086907237994e-12,66.168940874175,5693.8636453218,-8.7706925055997e-12,565.27361537667,5729.4635139203,-11.007393390037,2.5025016781033e-12,5700.3467315429,4.4174540761444e-11,576.99259981655
1.9379999999999,4452.0947427096,-6.4020733159253e-12,434.93249681797,4481.5724656535,-0.0027673399833787,1.3588245112439e-11,4460.33771009,4.5864334032031e-11,435.75139341339,5667.9881780879,6.0182671346443e-11,552.71319390914,3.2843044411318,5.9703565875868e-12,64.429818899015,5694.7539084801,-8.18894257959e-12,556.32992506138,5729.4599271998,-11.002708371392,5.1529761360691e-12,5701.2429217629,4.6399018308052e-11,568.03280189665
1.9389999999999,4452.7623944812,-7.1376030086334e-12,427.93765524572,4481.5712258311,-0.0027777183813384,1.6262046396986e-11,4461.0154482288,4.8898367993599e-11,428.74447269989,5669.720311075,6.0055566422634e-11,543.90830175984,3.2878018013892,6.0661861818467e-12,62.718350184436,5695.6301232057,-9.1297802651269e-12,547.38483272509,5729.4563479806,-10.997985124745,8.5762230650488e-12,5702.1250401225,5.0280063966512e-11,559.07157493646
1.9399999999999,4453.4190563975,-6.7040192841539e-12,420.94178939052,4481.5699860133,-0.0027881138781396,1.899936111216e-11,4461.6821789264,5.1370668135986e-11,421.73649805892,5671.4247738205,6.0088083814191e-11,535.09804638995,3.2912991520743,5.8617427318303e-12,61.034551707795,5696.4922872908,-8.5751822309632e-12,538.43836043463,5729.4527763246,-10.993223661749,1.207810761128e-11,5702.9930843456,5.3442596702202e-11,550.10894103668
1.9409999999999,4454.0647268881,-6.9439592964571e-12,413.94491651895,4481.5687461966,-0.0027985266175392,1.2887755099222e-11,4462.3379005408,4.5326175104887e-11,414.7274867823,5673.1015496201,6.0209410374101e-11,526.28251475565,3.2947964931842,5.8084403172648e-12,59.378440173343,5697.3403985621,-8.8821588972721e-12,529.49053026032,5729.4492122875,-10.988423994309,4.2628426830116e-12,5703.8470521845,4.5711011364968e-11,541.1449223012
1.9419999999999,4454.6994044098,-6.7718400331707e-12,406.94705389999,4481.5675063848,-0.0028089563856213,1.8308465854489e-11,4462.9826114642,5.0811988297483e-11,407.71745616469,5674.7506220428,6.0348412031508e-11,517.46179386512,3.2982938247133,5.6979115436312e-12,57.750032012068,5698.174454881,-8.6620155492767e-12,520.54136427587,5729.445655934,-10.983586133979,1.1194294623207e-11,5704.6869414352,5.2728258391477e-11,532.1795408379
1.9429999999999,4455.3230874462,-6.5283264905069e-12,399.94821880498,4481.5662665754,-0.0028194033320688,1.8303795978891e-11,4463.6163101099,5.0833420806029e-11,400.70642350305,5676.3719749309,6.041528215206e-11,508.63597077771,3.3017911466635,5.5851447598731e-12,56.149343381529,5698.9944541438,-8.3505632963998e-12,511.59088455839,5729.442107321,-10.978710092861,1.1191584985137e-11,5705.5127499207,5.2755818810701e-11,523.21281875789
1.9439999999999,4455.9357745085,-6.1463750755664e-12,392.94842850759,4481.5650267692,-0.0028298674335758,1.4261124399451e-11,4464.2389949216,4.6563203813521e-11,393.69440609695,5677.9655924005,6.0538614052308e-11,499.80513260307,3.305288459027,5.442732202432e-12,54.576390165695,5699.8003942812,-7.8620165933074e-12,502.63911318829,5729.4385665095,-10.973795882937,6.0169447549385e-12,5706.3244755029,4.7293706277596e-11,514.24477817595
1.9449999999999,4456.5374641346,-7.2894468239326e-12,385.94770028375,4481.5637869658,-0.0028403485641633,2.6957628837532e-12,4464.8506643688,3.5393472007372e-11,386.68142124813,5679.5314588412,6.0065123014263e-11,490.96936650031,3.3087857618029,5.3601448366664e-12,53.031187974793,5700.5922732587,-9.3242219501022e-12,493.68607224922,5729.435033559,-10.96884351615,-8.7758949413042e-12,5707.1221160769,3.3005995506152e-11,505.27544120997
1.9459999999999,4457.1281548898,-6.9095354437998e-12,378.94605141165,4481.5625471657,-0.0028508468623016,1.7615686687122e-11,4465.4513169493,5.0274348920021e-11,379.66748626109,5681.0695589168,6.0014338984504e-11,482.12875967711,3.3122830549875,5.270445972011e-12,51.513752145153,5701.3700890765,-8.8382912100116e-12,484.73178382808,5729.4315085301,-10.963853004875,1.030818399389e-11,5707.9056695735,5.2041121412216e-11,496.30482998164
1.9469999999999,4457.7078453665,-7.1278399849106e-12,371.94349917167,4481.5613073675,-0.0028613622965565,1.2182678477135e-11,4466.0409511861,4.4910744394222e-11,372.65261844229,5682.5798775649,6.0122493789061e-11,473.28339938887,3.3157803385751,5.2625241404175e-12,50.024097739049,5702.1338397694,-9.1175816896438e-12,475.77627001487,5729.4279914808,-10.958824361361,3.3602660584608e-12,5708.675133956,4.5180323024474e-11,487.33296661553
1.9479999999999,4458.2765341841,-7.167308413436e-12,364.94006084631,4481.5600675734,-0.0028718946573463,1.6930565456541e-11,4466.619565633,4.9692459348771e-11,365.63683510065,5684.0623999973,5.9870646634819e-11,464.43337293786,3.319277612565,5.1834227014769e-12,48.562239544565,5702.8835234071,-9.168117653946e-12,466.81955290271,5729.4244824739,-10.953757597733,9.4311737239283e-12,5709.4305072269,5.1297072492518e-11,478.35987323963
1.9489999999999,4458.8342199894,-6.9860367490904e-12,357.93575372021,4481.558827781,-0.0028824442410667,1.8973797359656e-11,4467.1871588665,5.1540108986226e-11,358.62015354744,5685.5171117003,5.9860555748359e-11,455.57876767235,3.322774876953,5.0569687326529e-12,47.128192075438,5703.6191380937,-8.9362683919347e-12,457.86165458777,5729.4209815665,-10.948652726844,1.2051732008189e-11,5710.171787418,5.366068006607e-11,469.38557198529
1.9499999999999,4459.3809014561,-6.818462461311e-12,350.93059508007,4481.5575879924,-0.0028930108841223,1.6951330096548e-11,4467.7437294944,4.9451758660224e-11,351.60259109602,5686.9439984347,6.0162999582225e-11,446.71967098574,3.3262721317366,5.0297811705555e-12,45.721969570917,5704.3406819683,-8.7219467759247e-12,448.90259716919,5729.4174888206,-10.943509761065,9.4624438493063e-12,5710.8989726009,5.0989448774352e-11,460.41008498683
1.9509999999999,4459.9165772854,-6.1490812441889e-12,343.9246022146,4481.556348207,-0.0029035945433975,2.1049959518515e-11,4468.2892761495,5.3280473782946e-11,344.58416506187,5688.3430462357,6.0512112681765e-11,437.85617031572,3.3297693769129,5.021971120206e-12,44.343585995626,5705.0481532046,-7.8657497182277e-12,439.94240274904,5729.4140042958,-10.938328713009,1.4703289800966e-11,5711.6120608792,5.588721933153e-11,451.43343438161
1.9519999999999,4460.4412462052,-5.8730659224793e-12,336.91779241449,4481.5551084232,-0.0029141953762775,1.2250191312735e-11,4468.8237974906,4.4309466686043e-11,337.56489276267,5689.7142414134,6.0925183301141e-11,428.98835314338,3.333266612477,4.90865139334e-12,42.993055039424,5705.741550011,-7.5127126741847e-12,430.98109343228,5729.4105280496,-10.933109595635,3.4474012186592e-12,5712.3110503895,4.4411739043293e-11,442.4556423101
1.9529999999999,4460.954906971,-6.3931152038954e-12,329.9101829724,4481.5538686431,-0.002924813161826,1.6950515643877e-11,4469.3472922073,4.9499288348742e-11,330.54479151811,5691.0575705529,6.0701452544998e-11,420.11630699237,3.3367638384281,4.5664962696618e-12,41.670390117269,5706.4208706306,-8.1779721883279e-12,422.01869132669,5729.4070601447,-10.927852421523,9.4577921883054e-12,5712.9959393082,5.1050664563734e-11,433.47673091568
1.9539999999999,4461.4575583652,-6.3507810121877e-12,322.90179118283,4481.5526288646,-0.0029354481432335,1.4240480322725e-11,4469.8597590121,4.6694197120001e-11,323.52387865003,5692.3730205141,6.0623207842614e-11,411.24011942801,3.3402610547586,4.5616696184303e-12,40.375604369084,5707.0861133413,-8.1238210603019e-12,413.0552185428,5729.403600638,-10.922557203929,5.9959060286219e-12,5713.6667258408,4.7462525229469e-11,424.49672234481
1.9549999999999,4461.9491991975,-5.6477530985255e-12,315.89263434217,4481.5513890908,-0.0029461000348476,1.833963796799e-11,4470.3611966505,5.0531271875154e-11,316.50217148215,5693.6605784323,6.0804495119471e-11,402.35987805646,3.3437582614678,4.3787545204316e-12,39.108710659638,5707.7372764557,-7.2245612270372e-12,404.09069719389,5729.4001495935,-10.917223955541,1.1235705074664e-11,5714.3234082347,5.2371060613177e-11,415.51563874667
1.9559999999999,4462.4298283047,-6.4316885151072e-12,308.88272974861,4481.5501493184,-0.0029567690321244,1.8293249727519e-11,4470.8516038882,5.0957555015885e-11,309.47968734014,5694.920231718,6.0345520247473e-11,393.47567052382,3.3472554585564,4.2805711232552e-12,37.869721578414,5708.374358321,-8.2273840518177e-12,395.12514939587,5729.3967070665,-10.911852689739,1.1177944854446e-11,5714.9659847636,5.2916507981005e-11,406.53350227321
1.9569999999999,4462.8994445508,-6.2822524959927e-12,301.87209470211,4481.5489095489,-0.0029674551334011,1.8978608615217e-11,4471.3309795231,5.1536361116156e-11,302.45644355173,5696.1519680569,6.0686676170429e-11,384.58758451529,3.3507526460145,4.2331689369124e-12,36.658649439466,5708.9973573194,-8.036293852598e-12,386.15859726725,5729.3932731186,-10.906443419757,1.2056133001648e-11,5715.5944537419,5.3657070973878e-11,397.55033507936
1.9579999999999,4463.358046827,-6.578078359798e-12,294.86074650434,4481.5476697816,-0.0029781581484656,1.8984278558898e-11,4471.7993223783,5.1497615199958e-11,295.43245744617,5697.3557754107,6.0617542235741e-11,375.69570775429,3.3542498238429,4.0291251238167e-12,35.475506281331,5709.6062718677,-8.4147341872232e-12,377.19106292912,5729.3898478089,-10.900996158676,1.2062185451855e-11,5716.2088135166,5.3607645232601e-11,388.56615932235
1.9589999999999,4463.8056340517,-6.8427694066564e-12,287.84870245867,4481.5464300178,-0.0029888782441674,1.7604662519433e-11,4472.2566313057,5.0380360473723e-11,288.407746355,5698.5316420163,6.041143453539e-11,366.80012800161,3.3577469920364,4.1221808952385e-12,34.320303866887,5710.2011004174,-8.7534077208851e-12,368.22256850504,5729.3864311986,-10.895510920134,1.0297602180687e-11,5716.8090624715,5.217856442058e-11,379.58099716261
1.9599999999999,4464.2422051704,-6.4397098764601e-12,280.83597987008,4481.5451902564,-0.0029996153818246,1.5596969028808e-11,4472.7029051826,4.8105372983664e-11,281.38232761122,5699.6795563866,6.0784790395507e-11,357.90093305453,3.3612441505935,3.9116986559617e-12,33.193053683245,5710.7818414548,-8.2377785148857e-12,359.25313612101,5729.3830233459,-10.889987717591,7.7283093119496e-12,5717.3951990223,4.9268467777752e-11,370.59487076277
1.9609999999999,4464.6677591558,-6.4826963241948e-12,273.82259604518,4481.5439504973,-0.0030103695150814,1.0832700188257e-11,4473.138142914,4.3458682832953e-11,274.35621854958,5700.7995073103,6.0648401231655e-11,348.99821074596,3.3647412995073,3.7294846030878e-12,32.093766941631,5711.348493501,-8.2928663935888e-12,350.28278790544,5729.3796243104,-10.884426564596,1.6377663114575e-12,5717.9672216209,4.3324383143528e-11,361.60780228801
1.9619999999999,4465.0822950079,-6.1396096540101e-12,266.80856829212,4481.5427107405,-0.0030211406469505,1.6261640471693e-11,4473.5623434327,4.8909782474071e-11,267.32943650661,5701.8914838522,6.0425440692735e-11,340.09204894355,3.3682384387803,3.6912602965553e-12,31.022454577287,5711.9010551119,-7.8540160486362e-12,341.31154598905,5729.3762341518,-10.878827474855,8.5792657700257e-12,5718.5251287542,5.029776942167e-11,352.61981390612
1.9629999999999,4465.4858117538,-5.8305374417422e-12,259.79391392054,4481.5414709863,-0.0030319287122893,1.7628347566412e-11,4473.9755056986,5.0096025418223e-11,260.30199882042,5702.9554753531,6.0536952187218e-11,331.18253554888,3.371735568406,3.6851924506767e-12,29.979127249351,5712.4395248779,-7.4586448128855e-12,332.33943250485,5729.37285293,-10.873190462079,1.0331269693908e-11,5719.0689189441,5.1815400928246e-11,343.63092778723
1.9639999999999,4465.8783084477,-6.159829590846e-12,252.77865024157,4481.5402312349,-0.0030427338443459,1.6256733806341e-11,4474.3776286989,4.8893288723262e-11,253.27392283092,5703.9914714299,6.0252337841238e-11,322.26975849652,3.3752326883797,3.4172008755648e-12,28.963795340748,5712.9639014245,-7.8798634284283e-12,323.36646958805,5729.3694807047,-10.867515540327,8.5772994609656e-12,5719.5985907471,5.0276935392723e-11,334.64116610408
1.9649999999999,4466.2597841713,-6.9678846026378e-12,245.76279456776,4481.5389914858,-0.0030535559524125,1.418760248173e-11,4474.7687114476,4.717843043317e-11,246.24522587933,5704.9994619761,6.0040538513162e-11,313.35380575322,3.3787297987005,3.4173395450227e-12,27.976468958111,5713.4741834117,-8.9136198422324e-12,314.39267937606,5729.3661175352,-10.861802723466,5.9307949176746e-12,5720.1141427539,4.8083324648285e-11,325.65055103141
1.9659999999999,4466.6302380332,-6.79153261407e-12,238.74636421305,4481.5377517406,-0.003064395063582,1.1491750259718e-11,4475.1487529875,4.4312187599815e-11,239.21592530862,5705.9794371613,6.0250670771977e-11,304.43476531701,3.3822268993659,3.2908720236716e-12,27.017157931659,5713.9703695345,-8.6880710958859e-12,305.41808400838,5729.3627634827,-10.856052025608,2.4824014371871e-12,5720.6155735926,4.4416780149714e-11,316.65910474652
1.9669999999999,4466.9896691693,-6.4225152973663e-12,231.72937649269,4481.5365119959,-0.0030752510414516,1.2865492525493e-11,4475.5177523842,4.5516581823057e-11,232.1860384628,5706.9313874318,6.0206983495958e-11,295.51272521636,3.3857239903721,3.1187305342406e-12,26.085871815108,5714.4524585226,-8.2160112047092e-12,296.44270562658,5729.3594186025,-10.850263460741,4.2379494011313e-12,5721.1028819198,4.5957636134186e-11,307.66684942834
1.9679999999999,4467.3380767428,-6.110223438327e-12,224.71184872326,4481.535272254,-0.0030861241379512,1.4900887815306e-11,4475.8757087359,4.757121085941e-11,225.15558268803,5707.8553035105,6.0575587948475e-11,286.58777350926,3.3892210717111,3.1873254036086e-12,25.182619885569,5714.9204491403,-7.8165182659795e-12,287.46656637423,5729.3560829572,-10.844437043456,6.8407111572522e-12,5721.5760664342,4.8586188891586e-11,298.6738072589
1.9689999999999,4467.6754599438,-6.8558422827714e-12,217.69379822257,4481.5340325148,-0.0030970140662632,1.7580568077713e-11,4476.2226211658,5.0563581099894e-11,218.12457533117,5708.7511763969,6.0180986929947e-11,277.65999828241,3.3927181433869,3.0148997447882e-12,24.307411143484,5715.3743401869,-8.7703594386923e-12,278.48968839684,5729.352756606,-10.83857278774,1.0268673932001e-11,5722.0351258662,5.2414383597266e-11,289.68000042143
1.9699999999999,4468.00181799,-5.9354951509327e-12,210.67524230966,4481.5327927779,-0.0031079210050322,1.7627070809934e-11,4476.5584888238,5.0124212072622e-11,211.0930337409,5709.6189973672,6.0868964382732e-11,268.72948765031,3.396215205391,2.8446990856662e-12,23.460254312493,5715.8141304964,-7.5930442489103e-12,269.51209384183,5729.3494396078,-10.832670708272,1.032921925076e-11,5722.4800589806,5.1852440743905e-11,280.68545110178
1.9709999999999,4468.3171501261,-5.9573873611996e-12,203.65619830473,4481.5315530429,-0.0031188448832751,2.1034817984655e-11,4476.8833108875,5.3359794013885e-11,204.06097526694,5710.4587579748,6.09187145173e-11,259.79632975441,3.3997122577241,2.9532567797502e-12,22.641157839396,5716.2398189377,-7.6210357469186e-12,260.53380485846,5729.3461320215,-10.826730819503,1.4689858704453e-11,5722.9108645772,5.5991808411981e-11,271.69018148751
1.9719999999999,4468.621455624,-5.5831658740679e-12,196.6366835291,4481.530313311,-0.0031297857078414,1.4934657677212e-11,4477.197086563,4.7208919932984e-11,197.02841726045,5711.2704500495,6.1022022504464e-11,250.86061276223,3.4032093003805,2.6977058824665e-12,21.850129894025,5716.6514044143,-7.1423145175942e-12,251.55484359777,5729.3428339083,-10.820753136081,6.8867264321759e-12,5723.3275414927,4.8123205073636e-11,262.69421376829
1.9729999999999,4468.9147337829,-5.8854032758404e-12,189.61671530517,4481.5290735808,-0.0031407434527324,6.106578784304e-12,4477.4998150812,3.8522943515695e-11,189.99537707365,5712.0540656987,6.091576548739e-11,241.9224248665,3.4067063333577,2.7504294414921e-12,21.087178369199,5717.0488858647,-7.5289982581772e-12,242.57523221252,5729.3395453255,-10.814737672698,-4.4053068484762e-12,5723.7300885953,3.7011394816988e-11,253.69757013548
1.9739999999999,4469.1969839291,-5.5652288333263e-12,182.5963109564,4481.5278338531,-0.003151718109919,1.6967768336207e-11,4477.7914957022,4.9304507525327e-11,182.96187206005,5712.8095973066,6.0985872601949e-11,232.98185428429,3.4102033566519,2.6298631241456e-12,20.352310880628,5717.4322622619,-7.1194508621808e-12,233.59499285716,5729.3362663335,-10.808684444169,9.4845390222198e-12,5724.1185047906,5.0804363320445e-11,244.70027278241
1.9749999999999,4469.4682054161,-6.3972993569195e-12,175.57548780723,4481.5265941274,-0.0031627097250819,1.5586187722405e-11,4478.0721277126,4.8164487155555e-11,175.92791957431,5713.5370375346,6.0688724878855e-11,224.03898925611,3.4137003702615,2.5217168305759e-12,19.645534766842,5717.8015326141,-8.1838841259341e-12,224.61414768776,5729.3329969912,-10.802593465469,7.7178419904955e-12,5724.4927890179,4.9346063693556e-11,235.70234390419
1.9759999999999,4469.7283976249,-6.7231220590713e-12,168.55426318306,4481.5253544038,-0.0031737181594522,1.2856787683091e-11,4478.3417104264,4.5607840420958e-11,168.893536972,5714.2363793213,6.0626339018488e-11,215.09391804508,3.417197374179,2.5476822799846e-12,18.966857089114,5718.1566959639,-8.6007867494686e-12,215.63271886195,5729.329737358,-10.796464751428,4.2286391402357e-12,5724.8529402519,4.6075447276972e-11,226.70380569745
1.9769999999999,4469.9775599633,-5.8515761680589e-12,161.53265441019,4481.5241146838,-0.0031847435624641,1.695442484323e-11,4478.6002431863,4.9423616241273e-11,161.8587416101,5714.9076158828,6.1023139666383e-11,206.14672893604,3.4206943684065,2.3852277032839e-12,18.316284631407,5718.4977513891,-7.4858105825193e-12,206.65072853889,5729.326487495,-10.790298317344,9.4701529604335e-12,5725.1989575036,5.0957159498932e-11,217.7046803609
1.9779999999999,4470.2156918666,-6.1769131476375e-12,154.51067881581,4481.5228749641,-0.0031957858806209,1.7615062186671e-11,4478.8477253576,5.0252532170225e-11,154.82355084621,5715.5507407125,6.0573676283204e-11,197.19751023468,3.4241913529399,2.3333507435247e-12,17.693823900289,5718.8246980019,-7.9020748278147e-12,197.66819887917,5729.3232474571,-10.784094178337,1.0314184402394e-11,5725.5308398131,5.2017743411292e-11,208.70499009438
1.9789999999999,4470.4427927972,-6.3348284951026e-12,147.48835372793,4481.5216352472,-0.0032068450520697,1.6257252488661e-11,4479.0841563388,4.8905639087049e-11,147.7879820391,5716.1657475812,6.0708918794838e-11,188.24635026665,3.4276883277696,2.1614810093683e-12,17.099481124866,5719.1375349497,-8.1040590904635e-12,188.6851520448,5729.320017307,-10.777852349621,8.5763618429269e-12,5725.848586263,5.0294767482695e-11,199.70475709954
1.9799999999999,4470.6588622449,-6.3657204507628e-12,140.46569647534,4481.5203955318,-0.0032179211376828,1.3539157642239e-11,4479.3095355515,4.621876145694e-11,140.75205254846,5716.7526305373,6.0649931257761e-11,179.29333737674,3.4311852929013,2.0978289092845e-12,16.533262256752,5719.4362614144,-8.1436801746548e-12,179.70161019914,5729.3167971023,-10.771572846655,5.1031210507313e-12,5726.1521959655,4.6857497049135e-11,190.70400357953
1.9809999999999,4470.8638997265,-6.7819361238008e-12,133.44272438756,4481.5191558188,-0.0032290140510298,1.1506563930841e-11,4479.523862447,4.418981500165e-11,133.71577973477,5717.3113839067,6.0769183088394e-11,170.33855992795,3.4346822483266,2.0138168476541e-12,15.995172969967,5719.7208766129,-8.6761570150529e-12,170.71759550684,5729.3135869031,-10.765255684803,2.5024461669521e-12,5726.4416680706,4.4261921385014e-11,181.70275173883
1.9819999999999,4471.0579047861,-7.1071135088197e-12,126.41945479482,4481.5179161086,-0.0032401238298583,1.0784886005089e-11,4479.7271365035,4.3884181878673e-11,126.67918095946,5717.8420022929,6.0238657811906e-11,161.38210630064,3.4381791940443,1.8269004473277e-12,15.485218660917,5719.9913797968,-9.0921783990616e-12,161.73313013378,5729.3103867693,-10.758900879684,1.5793633761918e-12,5726.7170017626,4.387103007264e-11,172.70102378346
1.9829999999999,4471.240876995,-7.1940370327539e-12,119.395905028,4481.5166763996,-0.0032512504923723,1.4175179259557e-11,4479.919357224,4.7299595663797e-11,119.64227358467,5718.3444805772,6.037515279389e-11,152.42406489168,3.4416761300503,1.6072563202227e-12,15.003404448321,5720.2477702527,-9.2034366239169e-12,152.74823624703,5729.3071967577,-10.752508446977,5.9143167793763e-12,5726.9781962579,4.8240645852959e-11,163.69884192066
1.9839999999999,4471.4128159519,-6.7101810219405e-12,112.37209241861,4481.5154366928,-0.0032623939800622,2.2335895286107e-11,4480.100524142,5.5162299207601e-11,112.6050749733,5718.8188139187,6.0687198322196e-11,143.46452411354,3.4451730563413,1.5212185894634e-12,14.549735173168,5720.4900473017,-8.5844248376432e-12,143.76293601481,5729.304016929,-10.746078402363,1.6356287851904e-11,5727.2252508115,5.8299931722516e-11,154.69622835896
1.9849999999999,4471.5737212824,-6.7179733997946e-12,105.34803429871,4481.5141969875,-0.0032735543578895,1.3541564571062e-11,4480.2706368162,4.6198444375589e-11,105.56760248903,5719.2649977539,6.088924503489e-11,134.50357239344,3.4486699729139,1.4779778421091e-12,14.124215398665,5720.7182103001,-8.5944723560161e-12,134.77725160637,5729.3008473414,-10.739610761771,5.1051038396643e-12,5727.458164711,4.6832126718299e-11,145.6932053082
1.9859999999999,4471.7235926396,-6.13571693453e-12,98.323748000889,4481.5129572852,-0.0032847315256248,1.9644097112859e-11,4480.4296948347,5.2332456076942e-11,98.529873496086,5719.6830277975,6.0888407163451e-11,125.54129817247,3.4521668797647,1.4700486379408e-12,13.726849410197,5720.9322586387,-7.8496029121133e-12,125.79120519202,5729.2976880557,-10.733105541015,1.2910644775488e-11,5727.6769372814,5.4679863067952e-11,136.68979497928
1.9869999999999,4471.8624297038,-7.012349034774e-12,91.299250858223,4481.511717584,-0.0032959255574951,9.451689431117e-12,4480.5776978096,4.2350440862537e-11,91.491905359427,5720.0729000419,6.0776304128263e-11,116.57778990474,3.4556637768929,1.3499867185501e-12,13.357641215286,5721.1321917434,-8.9711432726958e-12,116.80481894302,5729.2945391285,-10.726562756217,-1.2842504837351e-13,5727.8815678784,4.1909365734727e-11,127.68601958429
1.9879999999999,4471.9902321824,-7.147019087661e-12,84.274560204232,4481.5104778846,-0.0033071363814656,1.7585834698186e-11,4480.714645383,5.0442779293836e-11,84.453715444495,5720.4346107576,6.0808170998516e-11,107.61313605645,3.4591606642927,1.281213118454e-12,13.016594543544,5721.3180090747,-9.1434360083298e-12,107.81811503155,5729.2914006199,-10.719982423413,1.0282421615548e-11,5728.0720558961,5.2262577078521e-11,118.6819013363
1.9889999999999,4472.10699981,-7.0464745149934e-12,77.249693372831,4481.5092381883,-0.0033183640253114,1.3520290789715e-11,4480.8405372246,4.6424995792105e-11,77.415321117376,5720.7681564927,6.0822959516149e-11,98.64742510508,3.4626575419601,1.1727290145924e-12,12.703712846642,5721.489710128,-9.0148652431843e-12,98.831115630613,5729.2882725904,-10.713364558857,5.0761790604259e-12,5728.2484007639,4.7122466519112e-11,109.67746244952
1.9899999999999,4472.2127323488,-7.4652992121393e-12,70.224667698296,4481.5079984922,-0.0033296084566068,1.0798795885281e-11,4480.9553730276,4.3750077345639e-11,70.376739744519,5721.0735340735,6.0564414594566e-11,89.680745538483,3.466154409894,1.150455734367e-12,12.418999298274,5721.6472944337,-9.5507907138526e-12,89.843842914059,5729.2851550954,-10.706709178813,1.5990134563659e-12,5728.4106019413,4.3700348027753e-11,100.67272513893
1.9909999999999,4472.3074295877,-6.3829705410079e-12,63.199500515207,4481.5067587985,-0.0033408697165935,2.101219285372e-11,4481.0591525171,5.3577807121452e-11,63.337988692982,5721.3507406043,6.1180858990095e-11,80.71318585402,3.4696512680911,1.1270164489152e-12,12.162456794133,5721.7907615567,-8.1660650463888e-12,80.856319056452,5729.2820481965,-10.70001629974,1.4660744840356e-11,5728.5586589285,5.6273924756156e-11,91.667711620633
1.9919999999999,4472.3910913432,-7.1428904457882e-12,56.174209158424,4481.5055191071,-0.0033521478003049,9.4487612178895e-12,4481.1518754436,4.2361930803481e-11,56.299085330147,5721.5997734674,6.0675115973186e-11,71.744834557682,3.4731481165497,1.004214967475e-12,11.934087951866,5721.920111097,-9.1383428602043e-12,71.868566233064,5729.2789519527,-10.693285938127,-1.2952139361033e-13,5728.6925712581,4.1924584463782e-11,82.662444111437
1.9929999999999,4472.4637174588,-7.0645989058704e-12,49.148810963028,4481.5042794169,-0.0033634425709401,1.6237702155086e-11,4481.2335415834,4.9069814184177e-11,49.260047023617,5721.8206303232,6.089491931538e-11,62.775780163221,3.4766449552611,7.6316440688652e-13,11.733895111065,5722.0353426893,-9.0382146211709e-12,62.880606619797,5729.2758664212,-10.686518110386,8.5542788130777e-12,5728.8123384962,5.0506732476863e-11,73.656944828764
1.9939999999999,4472.5253078056,-6.8589370294525e-12,42.123323264284,4481.5030397279,-0.0033747541264812,1.6923784422473e-11,4481.3041507417,4.9667367441053e-11,42.22089114157,5722.0133091102,6.0813928545733e-11,53.806111191277,3.480141784228,6.4060659988457e-13,11.561880333241,5722.1364560032,-8.7751056421226e-12,53.892462393134,5729.2727916611,-10.679712833322,9.4323516011685e-12,5728.9179602453,5.1271374298945e-11,64.651235991093
1.9949999999999,4472.5758622814,-7.5624645434758e-12,35.097763397608,4481.5018000411,-0.0033860825463687,1.4167817093125e-11,4481.3637027516,4.7317679288672e-11,35.181635052451,5722.1778080448,6.0449525593476e-11,44.835916168502,3.4836386034462,5.7554896720942e-13,11.418045401795,5722.2234507431,-9.6752675315948e-12,44.904155730095,5729.2697277324,-10.672870123811,5.9080735095862e-12,5729.009436144,4.8265307549256e-11,55.645339817563
1.9959999999999,4472.6153808117,-7.4757769419342e-12,28.072148698504,4481.500560357,-0.0033974276115574,1.4854630546457e-11,4481.4121974732,4.7916754765398e-11,28.142296124638,5722.3141256218,6.0607728905038e-11,35.865283626686,3.4871354129092,7.3223318955515e-13,11.302391822005,5722.2963266483,-9.5643631903286e-12,35.915708808161,5729.2666746946,-10.66598999844,6.7890719088193e-12,5729.086765865,4.9031895731078e-11,46.639278527546
1.9969999999999,4472.6438633489,-6.6710942325798e-12,21.046496502538,4481.4993206733,-0.0034087895243964,1.8955842104318e-11,4481.4496347911,5.1688185849497e-11,21.102891727102,5722.4222606139,6.085248450971e-11,26.894302101882,3.4906322126157,4.5442992698355e-13,11.214920821017,5722.3550834929,-8.5348533795937e-12,26.927143805238,5729.2636326036,-10.65907247442,1.2034701360464e-11,5729.1499491127,5.3857255460921e-11,37.633074341488
1.9979999999999,4472.6613098729,-7.3337308448274e-12,14.02082414529,4481.4980809911,-0.0034201680919201,1.8252548777964e-11,4481.4760146203,5.120956349941e-11,14.063439228598,5722.5022120722,6.0397799608869e-11,17.92306013354,3.4941290025641,2.3031924437577e-13,11.155633347828,5722.3997210858,-9.3827029479243e-12,17.938482899595,5729.2606015195,-10.652117568557,1.1135882146962e-11,5729.1989856304,5.3245031647609e-11,28.626749479883
1.9989999999999,4472.6677203906,-7.7947925891664e-12,6.9951489623083,4481.4968413116,-0.0034315634709714,1.3484831307142e-11,4481.4913369035,4.6652608859388e-11,7.0239559983319,5722.5539793258,6.036874472537e-11,8.9516462636238,3.4976257827467,1.9705398328902e-13,11.124530073272,5722.4302392706,-9.9726407687406e-12,8.9497482698076,5729.2575815025,-10.645125298197,5.0365310880207e-12,5729.2338751966,4.7414888855457e-11,19.620326164123
1.9999999999999,4472.6630949363,-8.6142135091727e-12,-0.030511710926937,4481.4956016326,-0.0034429755213903,1.0055482488336e-11,4481.4956016071,4.3665704732576e-11,-0.01554059472992,5722.5775619819,5.9956390546789e-11,-0.019850964259276,3.5011225531661,9.9841847029519e-14,11.121611390031,5722.4466379262,-1.1021107637621e-11,-0.039037905290631,5729.2545726085,-10.638095680389,6.4821932543868e-13,5729.2546176202,4.3593480388016e-11,10.613826615603
