time,elastic_strain_xx,elastic_strain_xy,elastic_strain_xz,elastic_strain_yy,elastic_strain_yz,elastic_strain_zz,stress_xx,stress_xy,stress_xz,stress_yy,stress_yz,stress_zz
0,0,0,0,0,0,0,0,0,0,0,0,0
1,-0.1524444440428,-1.4462052308517e-18,5.5632359409228e-17,-0.1524444440428,3.6220970473933e-17,0.6097777761712,-1.1373420723073e-13,-1.1569641846814e-15,4.4505887527383e-14,-1.1373420723073e-13,2.8976776379147e-14,609.7777761712
