time,cauchy_stress_derivative_xx,cauchy_stress_derivative_xy,cauchy_stress_derivative_xz,cauchy_stress_derivative_yy,cauchy_stress_derivative_yz,cauchy_stress_derivative_zz,cauchy_stress_rate_xx,cauchy_stress_rate_xy,cauchy_stress_rate_xz,cauchy_stress_rate_yy,cauchy_stress_rate_yz,cauchy_stress_rate_zz,cauchy_stress_xx,cauchy_stress_xy,cauchy_stress_xz,cauchy_stress_yy,cauchy_stress_yz,cauchy_stress_zz
0,0,0,0,0,0,0,0,0,0,0,0,0,0,0,0,0,0,0
1,4.9999999342825,1.4698362999079e-16,1.6065119870163e-15,9.9999998685393,-4.0162799675407e-16,-14.999999802822,4.9999999342825,1.4698362999079e-16,1.6065119870163e-15,9.9999998685393,-4.0162799675407e-16,-14.999999802822,4.9999999342825,1.4698362999079e-16,1.6065119870163e-15,9.9999998685393,-4.0162799675407e-16,-14.999999802822
2,4.9999995398797,-9.5062141963739e-17,-5.5586540576291e-16,9.9999990798203,1.0231588930398e-16,-14.999998619742,4.9999997370635,-9.5062136167182e-17,-5.558653424073e-16,9.9999994741878,1.0231587346508e-16,-14.999999211293,9.9999994741622,5.1921488027055e-17,1.0506465812534e-15,19.99999894836,-2.9931210745008e-16,-29.999998422563
