time,cauchy_stress_xx,cauchy_stress_xy,cauchy_stress_xz,cauchy_stress_yy,cauchy_stress_yz,cauchy_stress_zz,s_mises_new_pp,sdef_old
0,0,0,0,0,0,0,0,0
1,4.9999999342825,1.4698362999079e-16,1.6065119870163e-15,9.9999998685393,-4.0162799675407e-16,-14.999999802822,22.912878173582,22.912878173582
2,9.9999994741622,5.1921488027055e-17,1.0506465812534e-15,19.99999894836,-2.9931210745008e-16,-29.999998422563,45.825754539965,45.825754539965
