time,cauchy_stress_rate_int_xx,cauchy_stress_rate_int_xy,cauchy_stress_rate_int_xz,cauchy_stress_rate_int_yy,cauchy_stress_rate_int_yz,cauchy_stress_rate_int_zz,cauchy_stress_rate_xx,cauchy_stress_rate_xy,cauchy_stress_rate_xz,cauchy_stress_rate_yy,cauchy_stress_rate_yz,cauchy_stress_rate_zz,cauchy_stress_xx,cauchy_stress_xy,cauchy_stress_xz,cauchy_stress_yy,cauchy_stress_yz,cauchy_stress_zz
0,0,0,0,0,0,0,0,0,0,0,0,0,0,0,0,0,0,0
1,4.9999999342825,1.4698362999079e-16,1.6065119870163e-15,9.9999998685393,-4.0162799675407e-16,-14.999999802822,4.9999999342825,1.4698362999079e-16,1.6065119870163e-15,9.9999998685393,-4.0162799675407e-16,-14.999999802822,4.9999999342825,1.4698362999079e-16,1.6065119870163e-15,9.9999998685393,-4.0162799675407e-16,-14.999999802822
2,9.999999671346,5.1921493823612e-17,1.050646644609e-15,19.999999342727,-2.9931212328899e-16,-29.999999014115,4.9999997370635,-9.5062136167182e-17,-5.558653424073e-16,9.9999994741878,1.0231587346508e-16,-14.999999211293,9.9999994741622,5.1921488027055e-17,1.0506465812534e-15,19.99999894836,-2.9931210745008e-16,-29.999998422563
